
 Homework 3                                                                      

 C O N T R O L   I N F O R M A T I O N

      NUMBER OF NODAL POINTS . . . . . . . . . . (NUMNP)  =    12
      NUMBER OF ELEMENT GROUPS . . . . . . . . . (NUMEG)  =     1
      NUMBER OF LOAD CASES . . . . . . . . . . . (NLCASE) =     2
      SOLUTION MODE  . . . . . . . . . . . . . . (MODEX)  =     1
         EQ.0, DATA CHECK
         EQ.1, EXECUTION


 N O D A L   P O I N T   D A T A

  NODE          BOUNDARY                         NODAL POINT
 NUMBER     CONDITION  CODES                     COORDINATES
               X    Y    Z   RX   RY   RZ               X            Y            Z
    1          1    1    1    1    1    1         0.000        0.000        0.000
    2          0    1    0    1    1    1         0.000        0.000        4.000
    3          0    1    0    1    1    1         3.000        0.000        0.000
    4          0    1    0    1    1    1         3.000        0.000        4.000
    5          0    1    0    1    1    1         6.000        0.000        0.000
    6          0    1    0    1    1    1         6.000        0.000        4.000
    7          0    1    0    1    1    1         9.000        0.000        0.000
    8          0    1    0    1    1    1         9.000        0.000        4.000
    9          0    1    0    1    1    1        12.000        0.000        0.000
   10          0    1    0    1    1    1        12.000        0.000        4.000
   11          1    1    1    1    1    1        15.000        0.000        0.000
   12          0    1    0    1    1    1        15.000        0.000        4.000


 EQUATION NUMBERS

   NODE         DEGREES OF FREEDOM
  NUMBER
     N             X    Y    Z   RX   RY   RZ
     1             0    0    0    0    0    0
     2             1    0    2    0    0    0
     3             3    0    4    0    0    0
     4             5    0    6    0    0    0
     5             7    0    8    0    0    0
     6             9    0   10    0    0    0
     7            11    0   12    0    0    0
     8            13    0   14    0    0    0
     9            15    0   16    0    0    0
    10            17    0   18    0    0    0
    11             0    0    0    0    0    0
    12            19    0   20    0    0    0


 EQUATION NUMBERS

   NODE         DEGREES OF FREEDOM
  NUMBER
     N             X    Y    Z   RX   RY   RZ
     1             0    0    0    0    0    0
     2             1    0    2    0    0    0
     3             3    0    4    0    0    0
     4             5    0    6    0    0    0
     5             7    0    8    0    0    0
     6             9    0   10    0    0    0
     7            11    0   12    0    0    0
     8            13    0   14    0    0    0
     9            15    0   16    0    0    0
    10            17    0   18    0    0    0
    11             0    0    0    0    0    0
    12            19    0   20    0    0    0


 L O A D   C A S E   D A T A

     LOAD CASE NUMBER . . . . . . . =     1
     NUMBER OF CONCENTRATED LOADS . =     1

    NODE       DIRECTION      LOAD
   NUMBER                   MAGNITUDE
      5            3       -0.70000E+04

     LOAD CASE NUMBER . . . . . . . =     2
     NUMBER OF CONCENTRATED LOADS . =     3

    NODE       DIRECTION      LOAD
   NUMBER                   MAGNITUDE
      5            3       -0.70000E+04
      6            3        0.60000E+04
      4            1        0.80000E+04


 E L E M E N T   G R O U P   D A T A


 E L E M E N T   D E F I N I T I O N

 ELEMENT TYPE  . . . . . . . . . . . . .( NPAR(1) ) . . =    1
     EQ.1, TRUSS ELEMENTS
     EQ.2, ELEMENTS CURRENTLY
     EQ.3, NOT AVAILABLE

 NUMBER OF ELEMENTS. . . . . . . . . . .( NPAR(2) ) . . =   22

 M A T E R I A L   D E F I N I T I O N

 NUMBER OF DIFFERENT SETS OF MATERIAL
 AND CROSS-SECTIONAL  CONSTANTS  . . . .( NPAR(3) ) . . =    1

  SET       YOUNG'S     CROSS-SECTIONAL
 NUMBER     MODULUS          AREA
               E              A
    1     0.15000E+12    0.100000E-01


 E L E M E N T   I N F O R M A T I O N

 ELEMENT     NODE     NODE       MATERIAL
 NUMBER-N      I        J       SET NUMBER
    1          1        2           1
    2          1        3           1
    3          2        3           1
    4          2        4           1
    5          3        4           1
    6          3        5           1
    7          4        5           1
    8          4        6           1
    9          5        6           1
   10          5        7           1
   11          6        7           1
   12          6        8           1
   13          5        8           1
   14          7        8           1
   15          7        9           1
   16          7       10           1
   17          8       10           1
   18          9       10           1
   19          9       11           1
   20          9       12           1
   21         10       12           1
   22         11       12           1


 TOTAL SYSTEM DATA

     NUMBER OF EQUATIONS . . . . . . . . . . . . . .(NEQ) =    20
     NUMBER OF MATRIX ELEMENTS . . . . . . . . . . .(NWK) =         106
     MAXIMUM HALF BANDWIDTH  . . . . . . . . . . . .(MK ) =     8
     MEAN HALF BANDWIDTH . . . . . . . . . . . . . .(MM ) =     5


 LOAD CASE   1


 D I S P L A C E M E N T S

  NODE    X-DISPLACEMENT  Y-DISPLACEMENT  Z-DISPLACEMENT  X-ROTATION  Y-ROTATION  Z-ROTATION
     1       0.000000E+00  0.000000E+00  0.000000E+00  0.000000E+00  0.000000E+00  0.000000E+00
     2       0.196071E-04  0.000000E+00 -0.112000E-04  0.000000E+00  0.000000E+00  0.000000E+00
     3      -0.425316E-05  0.000000E+00 -0.509702E-04  0.000000E+00  0.000000E+00  0.000000E+00
     4       0.133071E-04  0.000000E+00 -0.621702E-04  0.000000E+00  0.000000E+00  0.000000E+00
     5      -0.220633E-05  0.000000E+00 -0.956803E-04  0.000000E+00  0.000000E+00  0.000000E+00
     6       0.707089E-06  0.000000E+00 -0.914743E-04  0.000000E+00  0.000000E+00  0.000000E+00
     7       0.430633E-05  0.000000E+00 -0.805603E-04  0.000000E+00  0.000000E+00  0.000000E+00
     8      -0.952709E-05  0.000000E+00 -0.838210E-04  0.000000E+00  0.000000E+00  0.000000E+00
     9       0.425316E-05  0.000000E+00 -0.418352E-04  0.000000E+00  0.000000E+00  0.000000E+00
    10      -0.179271E-04  0.000000E+00 -0.493019E-04  0.000000E+00  0.000000E+00  0.000000E+00
    11       0.000000E+00  0.000000E+00  0.000000E+00  0.000000E+00  0.000000E+00  0.000000E+00
    12      -0.221271E-04  0.000000E+00 -0.746667E-05  0.000000E+00  0.000000E+00  0.000000E+00


 S T R E S S  C A L C U L A T I O N S  F O R  E L E M E N T  G R O U P   1

  ELEMENT             FORCE            STRESS
  NUMBER
     1           -0.420000E+04    -0.420000E+06
     2           -0.212658E+04    -0.212658E+06
     3            0.525000E+04     0.525000E+06
     4           -0.315000E+04    -0.315000E+06
     5           -0.420000E+04    -0.420000E+06
     6            0.102342E+04     0.102342E+06
     7            0.525000E+04     0.525000E+06
     8           -0.630000E+04    -0.630000E+06
     9            0.157722E+04     0.157722E+06
    10            0.325633E+04     0.325633E+06
    11           -0.197152E+04    -0.197152E+06
    12           -0.511709E+04    -0.511709E+06
    13            0.152848E+04     0.152848E+06
    14           -0.122278E+04    -0.122278E+06
    15           -0.265823E+02    -0.265823E+04
    16            0.350000E+04     0.350000E+06
    17           -0.420000E+04    -0.420000E+06
    18           -0.280000E+04    -0.280000E+06
    19           -0.212658E+04    -0.212658E+06
    20            0.350000E+04     0.350000E+06
    21           -0.210000E+04    -0.210000E+06
    22           -0.280000E+04    -0.280000E+06



                S T R E S S   R E C O V E R Y   A T   N O D A L   P O I N T S
  Node   |-----------------------------------------Stress-----------------------
 -----------------|
 Number     Sigma_XX       Sigma_YY       Sigma_ZZ       Sigma_XY       Sigma_YZ
        Sigma_ZX
     1    0.000000E+00   0.000000E+00   0.000000E+00   0.000000E+00   0.000000E+00   0.000000E+00
     2    0.000000E+00   0.000000E+00            NaN   0.000000E+00   0.000000E+00   0.000000E+00
     3             NaN            NaN            NaN            NaN            NaN            NaN
     4             NaN            NaN            NaN            NaN            NaN            NaN
     5             NaN            NaN            NaN            NaN            NaN            NaN
     6             NaN            NaN            NaN            NaN            NaN            NaN
     7             NaN            NaN            NaN            NaN            NaN            NaN
     8             NaN            NaN            NaN            NaN            NaN            NaN
     9             NaN            NaN            NaN            NaN            NaN            NaN
    10             NaN            NaN            NaN            NaN            NaN            NaN
    11    0.000000E+00   0.000000E+00   0.000000E+00   0.000000E+00   0.000000E+00   0.000000E+00
    12    0.000000E+00   0.000000E+00   0.000000E+00   0.000000E+00   0.000000E+00            NaN


 LOAD CASE   2


 D I S P L A C E M E N T S

  NODE    X-DISPLACEMENT  Y-DISPLACEMENT  Z-DISPLACEMENT  X-ROTATION  Y-ROTATION  Z-ROTATION
     1       0.000000E+00  0.000000E+00  0.000000E+00  0.000000E+00  0.000000E+00  0.000000E+00
     2       0.467963E-04  0.000000E+00  0.408889E-05  0.000000E+00  0.000000E+00  0.000000E+00
     3       0.756118E-05  0.000000E+00 -0.173513E-04  0.000000E+00  0.000000E+00  0.000000E+00
     4       0.490963E-04  0.000000E+00 -0.132624E-04  0.000000E+00  0.000000E+00  0.000000E+00
     5       0.128224E-04  0.000000E+00 -0.324818E-04  0.000000E+00  0.000000E+00  0.000000E+00
     6       0.376963E-04  0.000000E+00 -0.145367E-04  0.000000E+00  0.000000E+00  0.000000E+00
     7       0.130776E-04  0.000000E+00 -0.292018E-04  0.000000E+00  0.000000E+00  0.000000E+00
     8       0.273904E-04  0.000000E+00 -0.340123E-04  0.000000E+00  0.000000E+00  0.000000E+00
     9       0.843882E-05  0.000000E+00 -0.142863E-04  0.000000E+00  0.000000E+00  0.000000E+00
    10       0.197904E-04  0.000000E+00 -0.210419E-04  0.000000E+00  0.000000E+00  0.000000E+00
    11       0.000000E+00  0.000000E+00  0.000000E+00  0.000000E+00  0.000000E+00  0.000000E+00
    12       0.159904E-04  0.000000E+00 -0.675556E-05  0.000000E+00  0.000000E+00  0.000000E+00


 S T R E S S  C A L C U L A T I O N S  F O R  E L E M E N T  G R O U P   1

  ELEMENT             FORCE            STRESS
  NUMBER
     1            0.153333E+04     0.153333E+06
     2            0.378059E+04     0.378059E+06
     3           -0.191667E+04    -0.191667E+06
     4            0.115000E+04     0.115000E+06
     5            0.153333E+04     0.153333E+06
     6            0.263059E+04     0.263059E+06
     7           -0.191667E+04    -0.191667E+06
     8           -0.570000E+04    -0.570000E+06
     9            0.672940E+04     0.672940E+06
    10            0.127637E+03     0.127637E+05
    11           -0.911744E+03    -0.911744E+05
    12           -0.515295E+04    -0.515295E+06
    13            0.225492E+04     0.225492E+06
    14           -0.180394E+04    -0.180394E+06
    15           -0.231941E+04    -0.231941E+06
    16            0.316667E+04     0.316667E+06
    17           -0.380000E+04    -0.380000E+06
    18           -0.253333E+04    -0.253333E+06
    19           -0.421941E+04    -0.421941E+06
    20            0.316667E+04     0.316667E+06
    21           -0.190000E+04    -0.190000E+06
    22           -0.253333E+04    -0.253333E+06



                S T R E S S   R E C O V E R Y   A T   N O D A L   P O I N T S
  Node   |-----------------------------------------Stress-----------------------
 -----------------|
 Number     Sigma_XX       Sigma_YY       Sigma_ZZ       Sigma_XY       Sigma_YZ
        Sigma_ZX
     1    0.000000E+00   0.000000E+00   0.000000E+00   0.000000E+00   0.000000E+00   0.000000E+00
     2    0.000000E+00   0.000000E+00            NaN   0.000000E+00   0.000000E+00   0.000000E+00
     3             NaN            NaN            NaN            NaN            NaN            NaN
     4             NaN            NaN            NaN            NaN            NaN            NaN
     5             NaN            NaN            NaN            NaN            NaN            NaN
     6             NaN            NaN            NaN            NaN            NaN            NaN
     7             NaN            NaN            NaN            NaN            NaN            NaN
     8             NaN            NaN            NaN            NaN            NaN            NaN
     9             NaN            NaN            NaN            NaN            NaN            NaN
    10             NaN            NaN            NaN            NaN            NaN            NaN
    11    0.000000E+00   0.000000E+00   0.000000E+00   0.000000E+00   0.000000E+00   0.000000E+00
    12    0.000000E+00   0.000000E+00   0.000000E+00   0.000000E+00   0.000000E+00            NaN
