
 a test to STAP90                                                                

 C O N T R O L   I N F O R M A T I O N

      NUMBER OF NODAL POINTS . . . . . . . . . . (NUMNP)  =          8
      NUMBER OF ELEMENT GROUPS . . . . . . . . . (NUMEG)  =          1
      NUMBER OF LOAD CASES . . . . . . . . . . . (NLCASE) =          1
      SOLUTION MODE  . . . . . . . . . . . . . . (MODEX)  =          1
         EQ.0, DATA CHECK
         EQ.1, EXECUTION


 N O D A L   P O I N T   D A T A

  NODE          BOUNDARY                         NODAL POINT
 NUMBER     CONDITION  CODES                     COORDINATES
               X    Y    Z   RX   RY   RZ               X            Y            Z
         1               1         1         1         1         1         1         0.000        0.000        0.000
         2               0         1         1         1         1         1         1.000        0.000        0.000
         3               1         0         1         1         1         1         0.000        1.000        0.000
         4               0         0         0         1         1         1         0.000        0.000        1.000
         5               0         0         1         1         1         1         1.000        1.000        0.000
         6               0         0         0         1         1         1         1.000        0.000        1.000
         7               0         0         0         1         1         1         0.000        1.000        1.000
         8               0         0         0         1         1         1         1.000        1.000        1.000


 EQUATION NUMBERS

   NODE         DEGREES OF FREEDOM
  NUMBER
     N             X    Y    Z   RX   RY   RZ
          1                  0         0         0         0         0         0
          2                  1         0         0         0         0         0
          3                  0         2         0         0         0         0
          4                  3         4         5         0         0         0
          5                  6         7         0         0         0         0
          6                  8         9        10         0         0         0
          7                 11        12        13         0         0         0
          8                 14        15        16         0         0         0


 L O A D   C A S E   D A T A

     LOAD CASE NUMBER . . . . . . . =          1
     NUMBER OF CONCENTRATED LOADS . =         19

    NODE       DIRECTION      LOAD
   NUMBER                   MAGNITUDE
          6                  3        0.12000E+01
          8                  3        0.12000E+01
          4                  3        0.12000E+01
          7                  3        0.12000E+01
          5                  1        0.80000E+00
          2                  1        0.80000E+00
          8                  1        0.80000E+00
          6                  1        0.80000E+00
          5                  2        0.10000E+01
          3                  2        0.10000E+01
          7                  2        0.10000E+01
          8                  2        0.10000E+01
          5                  3       -0.12000E+01
          3                  2       -0.10000E+01
          6                  2       -0.10000E+01
          4                  2       -0.10000E+01
          1                  1       -0.80000E+00
          4                  1       -0.80000E+00
          7                  1       -0.80000E+00


 E L E M E N T   G R O U P   D A T A


 E L E M E N T   D E F I N I T I O N

 ELEMENT TYPE  . . . . . . . . . . . . .( NPAR(1) ) . . =        13
     EQ.1, TRUSS ELEMENTS
     EQ.2, 2D TRIANGLE
     EQ.3, 2D QUADRANGLE
     EQ.4, 3D HEXAHEDRAL

 NUMBER OF ELEMENTS. . . . . . . . . . .( NPAR(2) ) . . =         5

 M A T E R I A L   D E F I N I T I O N

 NUMBER OF DIFFERENT SETS OF MATERIAL
 AND CROSS-SECTIONAL  CONSTANTS  . . . .( NPAR(3) ) . . =         1

  SET       YOUNG'S    POISSON
 NUMBER     MODULUS      RATIO
               E            v
         1     0.10000E+04    0.250000E+00


 E L E M E N T   I N F O R M A T I O N

 ELEMENT        |--------- NODES ---------|       MATERIAL
 NUMBER-N        1       2       3       4       SET NUMBER
      1           1       5       6       2             1
      2           1       5       7       6             1
      3           1       5       3       7             1
      4           1       6       7       4             1
      5           5       7       6       8             1


 TOTAL SYSTEM DATA

     NUMBER OF EQUATIONS . . . . . . . . . . . . . .(NEQ) =         16
     NUMBER OF MATRIX ELEMENTS . . . . . . . . . . .(NWK) =        111
     MAXIMUM HALF BANDWIDTH  . . . . . . . . . . . .(MK ) =         12
     MEAN HALF BANDWIDTH . . . . . . . . . . . . . .(MM ) =          6


 LOAD CASE   1


 D I S P L A C E M E N T S

  NODE    X-DISPLACEMENT  Y-DISPLACEMENT  Z-DISPLACEMENT  X-ROTATION  Y-ROTATION  Z-ROTATION
          1       0.000000E+00  0.000000E+00  0.000000E+00  0.000000E+00  0.000000E+00  0.000000E+00
          2       0.118069E-01  0.000000E+00  0.000000E+00  0.000000E+00  0.000000E+00  0.000000E+00
          3       0.000000E+00 -0.158060E-02  0.000000E+00  0.000000E+00  0.000000E+00  0.000000E+00
          4       0.238724E-02 -0.785026E-02  0.218931E-01  0.000000E+00  0.000000E+00  0.000000E+00
          5       0.742274E-02  0.618524E-02  0.000000E+00  0.000000E+00  0.000000E+00  0.000000E+00
          6       0.886130E-02 -0.224886E-02  0.157345E-01  0.000000E+00  0.000000E+00  0.000000E+00
          7       0.326364E-02  0.233630E-02  0.206845E-01  0.000000E+00  0.000000E+00  0.000000E+00
          8       0.953954E-02  0.818954E-02  0.222688E-01  0.000000E+00  0.000000E+00  0.000000E+00


 S T R E S S  C A L C U L A T I O N S  F O R  E L E M E N T  G R O U P   1

  ELEMENT             COORDINSTES                   Sigma_xx         Sigma_yy         Sigma_zz         Sigma_xy         Sigma_yz         Sigma_xz
  NUMBER        X          Y          Z
     1       0.4146       0.1382       0.1382     0.229362E+02     0.184389E+02     0.260783E+02    -0.350733E+01    -0.179909E+01    -0.235648E+01
             0.8618       0.5854       0.1382     0.229362E+02     0.184389E+02     0.260783E+02    -0.350733E+01    -0.179909E+01    -0.235648E+01
             0.8618       0.1382       0.5854     0.229362E+02     0.184389E+02     0.260783E+02    -0.350733E+01    -0.179909E+01    -0.235648E+01
             0.8618       0.1382       0.1382     0.229362E+02     0.184389E+02     0.260783E+02    -0.350733E+01    -0.179909E+01    -0.235648E+01

     2       0.2764       0.2764       0.2764     0.172501E+02     0.163501E+02     0.266096E+02     0.137007E+01    -0.459123E+00    -0.991229E-01
             0.7236       0.7236       0.2764     0.172501E+02     0.163501E+02     0.266096E+02     0.137007E+01    -0.459123E+00    -0.991229E-01
             0.2764       0.7236       0.7236     0.172501E+02     0.163501E+02     0.266096E+02     0.137007E+01    -0.459123E+00    -0.991229E-01
             0.7236       0.2764       0.7236     0.172501E+02     0.163501E+02     0.266096E+02     0.137007E+01    -0.459123E+00    -0.991229E-01

     3       0.1382       0.4146       0.1382     0.165489E+02     0.934619E+01     0.271583E+02     0.621267E+01     0.313352E+01     0.261091E+01
             0.5854       0.8618       0.1382     0.165489E+02     0.934619E+01     0.271583E+02     0.621267E+01     0.313352E+01     0.261091E+01
             0.1382       0.8618       0.1382     0.165489E+02     0.934619E+01     0.271583E+02     0.621267E+01     0.313352E+01     0.261091E+01
             0.1382       0.8618       0.5854     0.165489E+02     0.934619E+01     0.271583E+02     0.621267E+01     0.313352E+01     0.261091E+01

     4       0.1382       0.1382       0.4146     0.206007E+02     0.235707E+02     0.329359E+02     0.518224E+01    -0.724704E+01    -0.301704E+01
             0.5854       0.1382       0.8618     0.206007E+02     0.235707E+02     0.329359E+02     0.518224E+01    -0.724704E+01    -0.301704E+01
             0.1382       0.5854       0.8618     0.206007E+02     0.235707E+02     0.329359E+02     0.518224E+01    -0.724704E+01    -0.301704E+01
             0.1382       0.1382       0.8618     0.206007E+02     0.235707E+02     0.329359E+02     0.518224E+01    -0.724704E+01    -0.301704E+01

     5       0.8618       0.8618       0.4146     0.206140E+02     0.239440E+02     0.334083E+02     0.522518E+01     0.683086E+01     0.296086E+01
             0.4146       0.8618       0.8618     0.206140E+02     0.239440E+02     0.334083E+02     0.522518E+01     0.683086E+01     0.296086E+01
             0.8618       0.4146       0.8618     0.206140E+02     0.239440E+02     0.334083E+02     0.522518E+01     0.683086E+01     0.296086E+01
             0.8618       0.8618       0.8618     0.206140E+02     0.239440E+02     0.334083E+02     0.522518E+01     0.683086E+01     0.296086E+01




                    S T R E S S   R E C O V E R Y   A T   N O D A L   P O I N T S
   Node   |-----------------------------------------Stress----------------------------------------|
  Number     Sigma_XX       Sigma_YY       Sigma_ZZ       Sigma_XY       Sigma_YZ       Sigma_ZX
     1    0.204560E+02   0.172368E+02   0.290495E+02   0.282291E+01  -0.220345E+01  -0.104729E+01
     2    0.229362E+02   0.184389E+02   0.260783E+02  -0.350733E+01  -0.179909E+01  -0.235648E+01
     3    0.165489E+02   0.934619E+01   0.271583E+02   0.621267E+01   0.313352E+01   0.261091E+01
     4    0.206007E+02   0.235707E+02   0.329359E+02   0.518224E+01  -0.724704E+01  -0.301704E+01
     5    0.204611E+02   0.173804E+02   0.292312E+02   0.283942E+01   0.321113E+01   0.125190E+01
     6    0.220195E+02   0.228513E+02   0.314533E+02   0.244310E+01  -0.781393E+00  -0.912698E+00
     7    0.195629E+02   0.193542E+02   0.318687E+02   0.618157E+01   0.111576E+01   0.997838E+00
     8    0.206140E+02   0.239440E+02   0.334083E+02   0.522518E+01   0.683086E+01   0.296086E+01


 S O L U T I O N   T I M E   L O G   I N   S E C

     TIME FOR INPUT PHASE  . . . . . . . . . . . . . . =         5
     TIME FOR PREPARATION OF MATRIX FORMAT . . . . . . =         0
     TIME FOR ASSEMBLING . . . . . . . . . . . . . . . =         1
     TIME FOR FACTORIZATION OF STIFFNESS MATRIX  . . . =         0
     TIME FOR LOAD CASE SOLUTIONS  . . . . . . . . . . =         0
     TIME FOR CALCLUATE STRESS . . . . . . . . . . . . =         2

T O T A L   S O L U T I O N   T I M E  . . . . . . . . =         3
