
 Bridge test                                                                     

 C O N T R O L   I N F O R M A T I O N

      NUMBER OF NODAL POINTS . . . . . . . . . . (NUMNP)  =    18
      NUMBER OF ELEMENT GROUPS . . . . . . . . . (NUMEG)  =     2
      NUMBER OF LOAD CASES . . . . . . . . . . . (NLCASE) =     1
      SOLUTION MODE  . . . . . . . . . . . . . . (MODEX)  =     1
         EQ.0, DATA CHECK
         EQ.1, EXECUTION


 N O D A L   P O I N T   D A T A

  NODE          BOUNDARY                         NODAL POINT
 NUMBER     CONDITION  CODES                     COORDINATES
               X    Y    Z   RX   RY   RZ               X            Y            Z
    1          1    1    1    1    1    1         0.000        0.000        0.000
    2          1    1    1    1    1    1         1.000        0.000        0.000
    3          1    1    1    1    1    1         1.000        1.000        0.000
    4          1    1    1    1    1    1         0.000        1.000        0.000
    5          0    0    0    1    1    1         0.000        0.000        1.000
    6          0    0    0    1    1    1         1.000        0.000        1.000
    7          0    0    0    0    0    1         1.000        1.000        1.000
    8          0    0    0    0    0    1         0.000        1.000        1.000
    9          1    1    1    1    1    1         0.000        3.000        0.000
   10          1    1    1    1    1    1         1.000        3.000        0.000
   11          1    1    1    1    1    1         1.000        4.000        0.000
   12          1    1    1    1    1    1         0.000        4.000        0.000
   13          0    0    0    0    0    1         0.000        3.000        1.000
   14          0    0    0    0    0    1         1.000        3.000        1.000
   15          0    0    0    1    1    1         1.000        4.000        1.000
   16          0    0    0    1    1    1         0.000        4.000        1.000
   17          0    0    0    0    0    1         1.000        2.000        1.000
   18          0    0    0    0    0    1         0.000        2.000        1.000


 EQUATION NUMBERS

   NODE         DEGREES OF FREEDOM
  NUMBER
     N             X    Y    Z   RX   RY   RZ
     1             0    0    0    0    0    0
     2             0    0    0    0    0    0
     3             0    0    0    0    0    0
     4             0    0    0    0    0    0
     5             1    2    3    0    0    0
     6             4    5    6    0    0    0
     7             7    8    9   10   11    0
     8            12   13   14   15   16    0
     9             0    0    0    0    0    0
    10             0    0    0    0    0    0
    11             0    0    0    0    0    0
    12             0    0    0    0    0    0
    13            17   18   19   20   21    0
    14            22   23   24   25   26    0
    15            27   28   29    0    0    0
    16            30   31   32    0    0    0
    17            33   34   35   36   37    0
    18            38   39   40   41   42    0


 L O A D   C A S E   D A T A

     LOAD CASE NUMBER . . . . . . . =     1
     NUMBER OF CONCENTRATED LOADS . =     2

    NODE       DIRECTION      LOAD
   NUMBER                   MAGNITUDE
     17            3        0.20000E+02
     18            3        0.20000E+02


 E L E M E N T   G R O U P   D A T A


 E L E M E N T   D E F I N I T I O N

 ELEMENT TYPE  . . . . . . . . . . . . .( NPAR(1) ) . . =    7
     EQ.1, TRUSS ELEMENTS
     EQ.2, ELEMENTS CURRENTLY
     EQ.3, NOT AVAILABLE

 NUMBER OF ELEMENTS. . . . . . . . . . .( NPAR(2) ) . . =    2

 M A T E R I A L   D E F I N I T I O N

 NUMBER OF DIFFERENT SETS OF MATERIAL
 AND CROSS-SECTIONAL  CONSTANTS  . . . .( NPAR(3) ) . . =    1

  SET       YOUNG'S     CROSS-SECTIONAL
 NUMBER     MODULUS          AREA
    1     0.10000E+11    0.300000E+00


 E L E M E N T   I N F O R M A T I O N

 ELEMENT     NODE     NODE     NODE     NODE       MATERIAL
 NUMBER-N      I        J        K        L       SET NUMBER
    1          7       17       18        8           1
    2         17       14       13       18           1

 E L E M E N T   D E F I N I T I O N

 ELEMENT TYPE  . . . . . . . . . . . . .( NPAR(1) ) . . =    4
     EQ.1, TRUSS ELEMENTS
     EQ.2, 2D TRIANGLE
     EQ.3, 2D QUADRANGLE
     EQ.4, 3D HEXAHEDRAL

 NUMBER OF ELEMENTS. . . . . . . . . . .( NPAR(2) ) . . =    2

 M A T E R I A L   D E F I N I T I O N

 NUMBER OF DIFFERENT SETS OF MATERIAL
 AND CROSS-SECTIONAL  CONSTANTS  . . . .( NPAR(3) ) . . =    1

  SET       YOUNG'S    POISSON
 NUMBER     MODULUS      RATIO
               E            v
    1     0.10000E+11    0.250000E+00


 E L E M E N T   I N F O R M A T I O N

 ELEMENT        |------------------------- NODES -------------------------|       MATERIAL
 NUMBER-N        1       2       3       4       5       6       7       8       SET NUMBER
      1           1       2       3       4       5       6       7       8        1
      2           9      10      11      12      13      14      15      16        1


 TOTAL SYSTEM DATA

     NUMBER OF EQUATIONS . . . . . . . . . . . . . .(NEQ) =    42
     NUMBER OF MATRIX ELEMENTS . . . . . . . . . . .(NWK) =       563
     MAXIMUM HALF BANDWIDTH  . . . . . . . . . . . .(MK ) =    36
     MEAN HALF BANDWIDTH . . . . . . . . . . . . . .(MM ) =    13


 LOAD CASE   1


 D I S P L A C E M E N T S

  NODE    X-DISPLACEMENT  Y-DISPLACEMENT  Z-DISPLACEMENT  X-ROTATION  Y-ROTATION  Z-ROTATION
     1       0.000000E+00  0.000000E+00  0.000000E+00  0.000000E+00  0.000000E+00  0.000000E+00
     2       0.000000E+00  0.000000E+00  0.000000E+00  0.000000E+00  0.000000E+00  0.000000E+00
     3       0.000000E+00  0.000000E+00  0.000000E+00  0.000000E+00  0.000000E+00  0.000000E+00
     4       0.000000E+00  0.000000E+00  0.000000E+00  0.000000E+00  0.000000E+00  0.000000E+00
     5      -0.979384E-01 -0.845882E+00 -0.170129E+03  0.000000E+00  0.000000E+00  0.000000E+00
     6       0.118270E+02  0.330106E+03 -0.256869E+00  0.000000E+00  0.000000E+00  0.000000E+00
     7      -0.204511E+00  0.171747E+03  0.110938E+02  0.333235E+03  0.579713-305  0.000000E+00
     8       0.119468-310  0.119468-310  0.891238-312  0.891238-312  0.912458-312  0.000000E+00
     9       0.000000E+00  0.000000E+00  0.000000E+00  0.000000E+00  0.000000E+00  0.000000E+00
    10       0.000000E+00  0.000000E+00  0.000000E+00  0.000000E+00  0.000000E+00  0.000000E+00
    11       0.000000E+00  0.000000E+00  0.000000E+00  0.000000E+00  0.000000E+00  0.000000E+00
    12       0.000000E+00  0.000000E+00  0.000000E+00  0.000000E+00  0.000000E+00  0.000000E+00
    13       0.912458-312  0.212200-313  0.891238-312  0.636599-313  0.891238-312  0.000000E+00
    14       0.636599-313  0.166006-320  0.212200-312  0.233420-312  0.494066-323  0.000000E+00
    15       0.000000E+00  0.321171-314  0.233420-312  0.000000E+00  0.000000E+00  0.000000E+00
    16       0.894448-312  0.236629-312  0.169760-312  0.000000E+00  0.000000E+00  0.000000E+00
    17       0.424399-313  0.850415+266  0.470153-121  0.349236-299  0.668696-313  0.000000E+00
    18       0.378033-121  0.127320-312  0.763918-312  0.891238-312  0.891238-312  0.000000E+00


 S T R E S S   I N F O R M A T I O N

           TAU_xx        TAU_yy        TAU_xy         TAU_yz       TAU_zx
ELEMENT  1
           0.41+274      0.14+275      0.18+275     -0.26+276     -0.69+275
           0.15+275      0.51+275      0.18+275     -0.69+275     -0.69+275
           0.41+274      0.14+275      0.48+274     -0.26+276     -0.26+276
           0.15+275      0.51+275      0.48+274     -0.69+275     -0.26+276
ELEMENT  2
          -0.55+275     -0.29+275      0.00E+00     -0.38-112     -0.33+276
          -0.67+275     -0.67+275     -0.13+275     -0.14-111     -0.33+276
          -0.18+275     -0.18+275      0.13+275     -0.38-112     -0.33+276
          -0.29+275     -0.55+275      0.00E+00     -0.14-111     -0.33+276



                S T R E S S   R E C O V E R Y   A T   N O D A L   P O I N T S
  Node   |-----------------------------------------Stress-----------------------
 -----------------|
 Number     Sigma_XX       Sigma_YY       Sigma_ZZ       Sigma_XY       Sigma_YZ
        Sigma_ZX
     7    0.104064+275   0.346880+275          ---   0.921575+274  -0.152255+276  -0.194376+276
     8    0.699918+274   0.233306+275          ---   0.200759+275  -0.209496+276  -0.379896+275
    13   -0.728636+275  -0.522981+275          ---  -0.109833+275  -0.932025-112  -0.327083+276
    14   -0.509238+275  -0.486596+275          ---  -0.409684+274  -0.102215-111  -0.327083+276
    17   -0.210084+275  -0.892302+274          ---   0.216220+274  -0.734964+275  -0.268590+276
    18   -0.571697+275  -0.361050+275          ---  -0.261926+275  -0.181464+275  -0.527022+276


 S T R E S S  C A L C U L A T I O N S  F O R  E L E M E N T  G R O U P   2

  ELEMENT             COORDINSTES                   Sigma_xx         Sigma_yy         Sigma_zz         Sigma_xy         Sigma_yz         Sigma_xz
  NUMBER        X          Y          Z
     1       0.7887       0.7887       0.7887    -0.374074E+12    -0.117583E+13    -0.394876E+12     0.123616E+13     0.157779E+13     0.296417E+12
             0.7887       0.7887       0.2113    -0.102400E+12    -0.317230E+12    -0.112308E+12     0.331227E+12     0.137038E+13     0.901980E+11
             0.7887       0.2113       0.7887    -0.411500E+12    -0.125744E+13    -0.683892E+12     0.181610E+13     0.215382E+13     0.918537E+12
             0.7887       0.2113       0.2113    -0.188344E+12    -0.415013E+12    -0.417496E+12     0.486621E+12     0.194641E+13     0.288909E+12
             0.2113       0.7887       0.7887    -0.187214E+12    -0.409031E+12    -0.414235E+12     0.128034E+13     0.120751E+13     0.285522E+12
             0.2113       0.7887       0.2113    -0.127812E+12    -0.187248E+12    -0.343939E+12     0.343066E+12     0.576698E+12     0.793034E+11
             0.2113       0.2113       0.7887    -0.436344E+12    -0.702347E+12    -0.133836E+13     0.186028E+13     0.135900E+13     0.875297E+12
             0.2113       0.2113       0.2113    -0.425460E+12    -0.496736E+12    -0.128424E+13     0.498461E+12     0.728186E+12     0.245669E+12

     2       0.7887       3.7887       0.7887    -0.722765-302    -0.134189-302     0.344113-303    -0.153058-302    -0.517311-303     0.101486-302
             0.7887       3.7887       0.2113    -0.120855-302     0.368539-303     0.227650-302    -0.410119-303     0.109602-303     0.144575-302
             0.7887       3.2113       0.7887    -0.666476-302    -0.945290-303     0.136763-302    -0.757605-303    -0.739264-303    -0.144112-302
             0.7887       3.2113       0.2113    -0.828253-303     0.704274-303     0.323915-302    -0.203000-303    -0.112351-303     0.970301-303
             0.2113       3.7887       0.7887    -0.662571-302     0.330235-304     0.137694-302    -0.136429-302    -0.235177-302     0.510158-302
             0.2113       3.7887       0.2113    -0.889540-303     0.894663-303     0.302639-302    -0.365562-303     0.255669-303     0.553247-302
             0.2113       3.2113       0.7887    -0.507256-302     0.141989-302     0.537125-302    -0.591315-303    -0.313959-302     0.252387-302
             0.2113       3.2113       0.2113     0.481017-303     0.222066-302     0.695984-302    -0.158442-303    -0.532145-303     0.493529-302




                S T R E S S   R E C O V E R Y   A T   N O D A L   P O I N T S
  Node   |-----------------------------------------Stress-----------------------
 -----------------|
 Number     Sigma_XX       Sigma_YY       Sigma_ZZ       Sigma_XY       Sigma_YZ
        Sigma_ZX
     1   -0.326145E+12  -0.319958E+11  -0.139388E+13   0.342668E+12   0.629199E+12   0.341032E+12
     2   -0.282622E+12  -0.625290E+12  -0.626493E+12   0.294150E+12   0.200488E+13   0.387914E+12
     3    0.756101E+10  -0.286589E+12   0.438128E+12  -0.342668E+12   0.137483E+13  -0.294934E+12
     4   -0.359626E+11   0.306705E+12  -0.329261E+12  -0.294150E+12  -0.851688E+09  -0.341816E+12
     5   -0.570848E+12  -0.953630E+12  -0.168547E+13   0.230573E+13   0.135512E+13   0.106490E+13
     6   -0.527324E+12  -0.154692E+13  -0.918077E+12   0.225721E+13   0.273080E+13   0.111178E+13
     7   -0.237141E+12  -0.120822E+13   0.146543E+12   0.162040E+13   0.210075E+13   0.428930E+12
     8   -0.280665E+12  -0.614930E+12  -0.620845E+12   0.166891E+13   0.725068E+12   0.382049E+12
     9    0.317140-302   0.350450-302   0.872461-302   0.515695-303  -0.891242-303   0.590557-302
    10    0.151625-302   0.100055-302   0.460794-302   0.333096-303   0.106100-302  -0.106742-302
    11   -0.158167-303  -0.491263-303   0.315092-303  -0.515695-303   0.193549-302   0.157670-302
    12    0.149699-302   0.201268-302   0.443176-302  -0.333096-303  -0.167581-304   0.854968-302
    13   -0.685083-302   0.132973-302   0.567536-302  -0.829536-303  -0.369228-302   0.344405-302
    14   -0.850599-302  -0.117421-302   0.155869-302  -0.101213-302  -0.174003-302  -0.352893-302
    15   -0.101804-301  -0.266603-302  -0.273416-302  -0.186092-302  -0.865549-303  -0.884819-303
    16   -0.852525-302  -0.162086-303   0.138251-302  -0.167833-302  -0.281779-302   0.608817-302


 S O L U T I O N   T I M E   L O G   I N   S E C

     TIME FOR INPUT PHASE  . . . . . . . . . . . . . . =        0.03125
     TIME FOR CALCULATION OF STIFFNESS MATRIX  . . . . =        0.00000
     TIME FOR FACTORIZATION OF STIFFNESS MATRIX  . . . =        0.00000
     TIME FOR LOAD CASE SOLUTIONS  . . . . . . . . . . =        0.00000

      T O T A L   S O L U T I O N   T I M E  . . . . . =        0.03125
