Input phase ... 

 Patch Test                                                                      

 C O N T R O L   I N F O R M A T I O N

      NUMBER OF NODAL POINTS . . . . . . . . . . (NUMNP)  =    16
      NUMBER OF ELEMENT GROUPS . . . . . . . . . (NUMEG)  =     1
      NUMBER OF LOAD CASES . . . . . . . . . . . (NLCASE) =     1
      SOLUTION MODE  . . . . . . . . . . . . . . (MODEX)  =     1
         EQ.0, DATA CHECK
         EQ.1, EXECUTION


 N O D A L   P O I N T   D A T A

  NODE          BOUNDARY                         NODAL POINT
 NUMBER     CONDITION  CODES                     COORDINATES
               X    Y    Z   RX   RY   RZ               X            Y            Z
    1          0    1    1    1    1    1         1.000        0.000        0.000
    2          0    0    0    1    1    1         1.000        1.000        0.000
    3          1    0    1    1    1    1         0.000        1.000        0.000
    4          1    1    1    1    1    1         0.000        0.000        0.000
    5          0    0    0    1    1    1         0.600        0.250        0.300
    6          0    0    0    1    1    1         0.600        0.700        0.400
    7          0    0    0    1    1    1         0.350        0.650        0.300
    8          0    0    0    1    1    1         0.200        0.200        0.200
    9          0    0    0    1    1    1         0.750        0.200        0.600
   10          0    0    0    1    1    1         0.600        0.800        0.750
   11          0    0    0    1    1    1         0.300        0.600        0.750
   12          0    0    0    1    1    1         0.350        0.350        0.600
   13          0    0    0    1    1    1         1.000        0.000        1.000
   14          0    0    0    1    1    1         1.000        1.000        1.000
   15          0    0    0    1    1    1         0.000        1.000        1.000
   16          0    0    0    1    1    1         0.000        0.000        1.000


 EQUATION NUMBERS

   NODE         DEGREES OF FREEDOM
  NUMBER
     N             X    Y    Z   RX   RY   RZ
     1             1    0    0    0    0    0
     2             2    3    4    0    0    0
     3             0    5    0    0    0    0
     4             0    0    0    0    0    0
     5             6    7    8    0    0    0
     6             9   10   11    0    0    0
     7            12   13   14    0    0    0
     8            15   16   17    0    0    0
     9            18   19   20    0    0    0
    10            21   22   23    0    0    0
    11            24   25   26    0    0    0
    12            27   28   29    0    0    0
    13            30   31   32    0    0    0
    14            33   34   35    0    0    0
    15            36   37   38    0    0    0
    16            39   40   41    0    0    0


 L O A D   C A S E   D A T A

     LOAD CASE NUMBER . . . . . . . =     1
     NUMBER OF CONCENTRATED LOADS . =    19

    NODE       DIRECTION      LOAD
   NUMBER                   MAGNITUDE
     13            3        0.12000E+01
     14            3        0.12000E+01
     15            3        0.12000E+01
     16            3        0.12000E+01
      1            1        0.80000E+00
      2            1        0.80000E+00
     14            1        0.80000E+00
     13            1        0.80000E+00
      2            2        0.10000E+01
      3            2        0.10000E+01
     15            2        0.10000E+01
     14            2        0.10000E+01
      2            3       -0.12000E+01
      4            2       -0.10000E+01
     13            2       -0.10000E+01
     16            2       -0.10000E+01
      4            1       -0.80000E+00
     15            1       -0.80000E+00
     16            1       -0.80000E+00


 E L E M E N T   G R O U P   D A T A


 E L E M E N T   D E F I N I T I O N

 ELEMENT TYPE  . . . . . . . . . . . . .( NPAR(1) ) . . =    4
     EQ.1, TRUSS ELEMENTS
     EQ.2, 2D TRIANGLE
     EQ.3, 2D QUADRANGLE
     EQ.4, 3D HEXAHEDRAL

 NUMBER OF ELEMENTS. . . . . . . . . . .( NPAR(2) ) . . =    7

 M A T E R I A L   D E F I N I T I O N

 NUMBER OF DIFFERENT SETS OF MATERIAL
 AND CROSS-SECTIONAL  CONSTANTS  . . . .( NPAR(3) ) . . =    1

  SET       YOUNG'S    POISSON
 NUMBER     MODULUS      RATIO
               E            v
    1     0.10000E+04    0.250000E+00


 E L E M E N T   I N F O R M A T I O N

 ELEMENT        |------------------------- NODES -------------------------|       MATERIAL
 NUMBER-N        1       2       3       4       5       6       7       8       SET NUMBER
      1           1       2       3       4       5       6       7       8        1
      2           1       4      16      13       5       8      12       9        1
      3           5       6      10       9       1       2      14      13        1
      4           6       7      11      10       2       3      15      14        1
      5           4       3      15      16       8       7      11      12        1
      6           5       6       7       8       9      10      11      12        1
      7           9      10      11      12      13      14      15      16        1
Solution phase ... 


 TOTAL SYSTEM DATA

     NUMBER OF EQUATIONS . . . . . . . . . . . . . .(NEQ) =    41
     NUMBER OF MATRIX ELEMENTS . . . . . . . . . . .(NWK) =   855
     MAXIMUM HALF BANDWIDTH  . . . . . . . . . . . .(MK ) =    41
     MEAN HALF BANDWIDTH . . . . . . . . . . . . . .(MM ) =    20


 LOAD CASE   1


 D I S P L A C E M E N T S

  NODE    X-DISPLACEMENT  Y-DISPLACEMENT  Z-DISPLACEMENT  X-ROTATION  Y-ROTATION  Z-ROTATION
   1       0.100000E-02  0.000000E+00  0.000000E+00  0.000000E+00  0.000000E+00  0.000000E+00
   2       0.100000E-02  0.200000E-02 -0.456369E-11  0.000000E+00  0.000000E+00  0.000000E+00
   3       0.000000E+00  0.200000E-02  0.000000E+00  0.000000E+00  0.000000E+00  0.000000E+00
   4       0.000000E+00  0.000000E+00  0.000000E+00  0.000000E+00  0.000000E+00  0.000000E+00
   5       0.600000E-03  0.500000E-03  0.900000E-03  0.000000E+00  0.000000E+00  0.000000E+00
   6       0.600000E-03  0.140000E-02  0.120000E-02  0.000000E+00  0.000000E+00  0.000000E+00
   7       0.350000E-03  0.130000E-02  0.900000E-03  0.000000E+00  0.000000E+00  0.000000E+00
   8       0.200000E-03  0.400000E-03  0.600000E-03  0.000000E+00  0.000000E+00  0.000000E+00
   9       0.750000E-03  0.400000E-03  0.180000E-02  0.000000E+00  0.000000E+00  0.000000E+00
  10       0.600000E-03  0.160000E-02  0.225000E-02  0.000000E+00  0.000000E+00  0.000000E+00
  11       0.300000E-03  0.120000E-02  0.225000E-02  0.000000E+00  0.000000E+00  0.000000E+00
  12       0.350000E-03  0.700000E-03  0.180000E-02  0.000000E+00  0.000000E+00  0.000000E+00
  13       0.100000E-02 -0.431814E-11  0.300000E-02  0.000000E+00  0.000000E+00  0.000000E+00
  14       0.100000E-02  0.200000E-02  0.300000E-02  0.000000E+00  0.000000E+00  0.000000E+00
  15       0.834001E-11  0.200000E-02  0.300000E-02  0.000000E+00  0.000000E+00  0.000000E+00
  16       0.239806E-11  0.903458E-12  0.300000E-02  0.000000E+00  0.000000E+00  0.000000E+00


 S T R E S S  C A L C U L A T I O N S  F O R  E L E M E N T  G R O U P   1

  ELEMENT             COORDINSTES                   Sigma_xx         Sigma_yy         Sigma_zz         Sigma_xy         Sigma_yz         Sigma_xz
  NUMBER        X          Y          Z
     1       0.3426       0.6126       0.2366     0.320000E+01     0.400000E+01     0.480000E+01     0.271053E-08    -0.853935E-08     0.332478E-08
             0.2465       0.7415       0.0634     0.320000E+01     0.400000E+01     0.480000E+01     0.187770E-08    -0.375251E-08     0.392002E-08
             0.5929       0.6354       0.2821     0.320000E+01     0.400000E+01     0.480000E+01     0.313864E-08    -0.824944E-08    -0.448952E-08
             0.7362       0.7476       0.0756     0.320000E+01     0.400000E+01     0.480000E+01     0.196296E-08    -0.518938E-08    -0.919446E-09
             0.2888       0.2857       0.1911     0.320000E+01     0.400000E+01     0.480000E+01    -0.158477E-08     0.972784E-08     0.720953E-08
             0.2321       0.2313       0.0512     0.320000E+01     0.400000E+01     0.480000E+01     0.109840E-09     0.833215E-08     0.759364E-08
             0.5785       0.3085       0.2366     0.320000E+01     0.400000E+01     0.480000E+01     0.189587E-09     0.394663E-08    -0.344246E-08
             0.7324       0.2374       0.0634     0.320000E+01     0.400000E+01     0.480000E+01     0.323213E-09     0.341995E-08     0.855217E-09

     2       0.3624       0.2331       0.5767     0.320000E+01     0.400000E+01     0.480000E+01     0.390413E-08    -0.683469E-08    -0.293018E-08
             0.2518       0.0625       0.7319     0.320000E+01     0.400000E+01     0.480000E+01     0.919776E-09    -0.135974E-08    -0.141170E-08
             0.2941       0.1840       0.2822     0.320000E+01     0.400000E+01     0.480000E+01     0.795348E-08     0.622131E-08     0.894096E-09
             0.2335       0.0493       0.2303     0.320000E+01     0.400000E+01     0.480000E+01     0.557114E-08     0.784393E-08     0.113891E-08
             0.6665       0.1840       0.5863     0.320000E+01     0.400000E+01     0.480000E+01    -0.708045E-08    -0.175795E-07    -0.236429E-08
             0.7559       0.0493       0.7345     0.320000E+01     0.400000E+01     0.480000E+01    -0.586676E-08    -0.814199E-08    -0.303811E-09
             0.5982       0.1875       0.3181     0.320000E+01     0.400000E+01     0.480000E+01    -0.599935E-08     0.802082E-08     0.296027E-08
             0.7376       0.0503       0.2399     0.320000E+01     0.400000E+01     0.480000E+01    -0.290759E-08     0.604106E-08     0.246095E-08

     3       0.9208       0.7612       0.7586     0.320000E+01     0.400000E+01     0.480000E+01     0.519173E-08    -0.395303E-08     0.424843E-08
             0.7042       0.6862       0.6766     0.320000E+01     0.400000E+01     0.480000E+01     0.749184E-08    -0.443334E-08     0.486239E-08
             0.9169       0.7529       0.2619     0.320000E+01     0.400000E+01     0.480000E+01     0.186949E-08    -0.613948E-08    -0.146639E-08
             0.6898       0.6551       0.4000     0.320000E+01     0.400000E+01     0.480000E+01     0.324630E-08    -0.724622E-08    -0.549793E-08
             0.9352       0.2365       0.7416     0.320000E+01     0.400000E+01     0.480000E+01    -0.334759E-08    -0.411995E-08     0.464286E-08
             0.7581       0.3054       0.6131     0.320000E+01     0.400000E+01     0.480000E+01    -0.317628E-08    -0.248150E-08     0.930864E-08
             0.9208       0.2388       0.2484     0.320000E+01     0.400000E+01     0.480000E+01    -0.619274E-08    -0.636238E-08    -0.423345E-08
             0.7042       0.3138       0.3497     0.320000E+01     0.400000E+01     0.480000E+01    -0.801754E-08    -0.658835E-08    -0.770970E-08

     4       0.2452       0.9252       0.7613     0.320000E+01     0.400000E+01     0.480000E+01    -0.236850E-09     0.668995E-08    -0.317940E-08
             0.3378       0.7209       0.6867     0.320000E+01     0.400000E+01     0.480000E+01    -0.342979E-08     0.594791E-08    -0.705738E-08
             0.2500       0.9275       0.2537     0.320000E+01     0.400000E+01     0.480000E+01     0.119088E-08    -0.169542E-08     0.874865E-09
             0.3558       0.7292       0.3694     0.320000E+01     0.400000E+01     0.480000E+01    -0.257597E-08    -0.767227E-08    -0.885141E-09
             0.7359       0.9458       0.7639     0.320000E+01     0.400000E+01     0.480000E+01     0.609760E-08     0.908002E-08    -0.384050E-08
             0.5916       0.7975       0.6963     0.320000E+01     0.400000E+01     0.480000E+01     0.894115E-08     0.148391E-07    -0.126997E-07
             0.7372       0.9374       0.2633     0.320000E+01     0.400000E+01     0.480000E+01     0.650555E-08    -0.548750E-08     0.576334E-09
             0.5964       0.7664       0.4053     0.320000E+01     0.400000E+01     0.480000E+01     0.819482E-08    -0.115835E-07    -0.100172E-08

     5       0.2462       0.5995       0.6599     0.320000E+01     0.400000E+01     0.480000E+01    -0.108364E-07     0.312524E-08    -0.776139E-08
             0.0660       0.7380       0.7542     0.320000E+01     0.400000E+01     0.480000E+01    -0.341504E-08     0.642418E-08    -0.270349E-08
             0.2497       0.6030       0.3378     0.320000E+01     0.400000E+01     0.480000E+01    -0.585278E-08    -0.411860E-09     0.731541E-08
             0.0669       0.7389       0.2452     0.320000E+01     0.400000E+01     0.480000E+01    -0.279981E-08     0.292009E-08     0.589889E-08
             0.2497       0.3444       0.5964     0.320000E+01     0.400000E+01     0.480000E+01     0.561700E-08     0.291621E-08    -0.901624E-08
             0.0669       0.2470       0.7372     0.320000E+01     0.400000E+01     0.480000E+01     0.488849E-08     0.531013E-08    -0.479724E-08
             0.2007       0.2953       0.2875     0.320000E+01     0.400000E+01     0.480000E+01     0.100489E-07    -0.222107E-08     0.952327E-08
             0.0538       0.2338       0.2317     0.320000E+01     0.400000E+01     0.480000E+01     0.795768E-08     0.154348E-08     0.772108E-08

     6       0.3783       0.5720       0.6299     0.320000E+01     0.400000E+01     0.480000E+01     0.123341E-08     0.556487E-09    -0.596309E-08
             0.3780       0.5672       0.3884     0.320000E+01     0.400000E+01     0.480000E+01     0.391191E-08    -0.822701E-09    -0.168646E-08
             0.5589       0.6355       0.6421     0.320000E+01     0.400000E+01     0.480000E+01    -0.393942E-09    -0.365324E-08    -0.411729E-08
             0.5454       0.6054       0.4339     0.320000E+01     0.400000E+01     0.480000E+01     0.275888E-08    -0.469668E-08     0.466419E-09
             0.3963       0.3696       0.5494     0.320000E+01     0.400000E+01     0.480000E+01    -0.334566E-08     0.343761E-08    -0.197290E-09
             0.3328       0.3228       0.3246     0.320000E+01     0.400000E+01     0.480000E+01     0.149825E-08    -0.734707E-09     0.331287E-08
             0.6137       0.3411       0.5616     0.320000E+01     0.400000E+01     0.480000E+01    -0.294546E-08    -0.348278E-08     0.208684E-09
             0.5467       0.3363       0.3701     0.320000E+01     0.400000E+01     0.480000E+01     0.142717E-08    -0.641848E-08     0.510682E-08

     7       0.2466       0.7433       0.9405     0.320000E+01     0.400000E+01     0.480000E+01     0.670643E-09     0.115227E-07    -0.558216E-08
             0.3431       0.6192       0.7778     0.320000E+01     0.400000E+01     0.480000E+01     0.108747E-08     0.149533E-07    -0.627762E-08
             0.7412       0.7586       0.9405     0.320000E+01     0.400000E+01     0.480000E+01    -0.117765E-08     0.771985E-08     0.166423E-08
             0.6113       0.6766       0.7778     0.320000E+01     0.400000E+01     0.480000E+01    -0.284225E-08     0.622649E-08     0.595474E-08
             0.2553       0.2484       0.9222     0.320000E+01     0.400000E+01     0.480000E+01     0.176748E-09     0.171367E-08    -0.266103E-08
             0.3755       0.3497       0.7095     0.320000E+01     0.400000E+01     0.480000E+01    -0.562186E-09    -0.339604E-08    -0.551178E-08
             0.7569       0.2391       0.9222     0.320000E+01     0.400000E+01     0.480000E+01    -0.153053E-08    -0.256245E-08     0.164365E-08
             0.6700       0.3151       0.7095     0.320000E+01     0.400000E+01     0.480000E+01    -0.313650E-08    -0.634449E-08     0.198573E-08




                S T R E S S   R E C O V E R Y   A T   N O D A L   P O I N T S
  Node   |-----------------------------------------Stress----------------------------------------|
 Number     Sigma_XX       Sigma_YY       Sigma_ZZ       Sigma_XY       Sigma_YZ       Sigma_ZX
     1    0.320000E+01   0.400000E+01   0.480000E+01  -0.201350E-08   0.712681E-08   0.171683E-08
     2    0.320000E+01   0.400000E+01   0.480000E+01  -0.126413E-09   0.395890E-08   0.941886E-08
     3    0.320000E+01   0.400000E+01   0.480000E+01   0.381206E-08   0.122380E-07   0.191013E-08
     4    0.320000E+01   0.400000E+01   0.480000E+01   0.827678E-08   0.116807E-07   0.122622E-07
     5    0.320000E+01   0.400000E+01   0.480000E+01  -0.191417E-08  -0.653300E-09   0.141121E-09
     6    0.320000E+01   0.400000E+01   0.480000E+01   0.383191E-08  -0.673085E-08  -0.309127E-08
     7    0.320000E+01   0.400000E+01   0.480000E+01   0.191672E-09  -0.438139E-08   0.114781E-08
     8    0.320000E+01   0.400000E+01   0.480000E+01   0.510774E-08   0.553185E-08   0.566158E-08
     9    0.320000E+01   0.400000E+01   0.480000E+01  -0.454639E-08  -0.715227E-08   0.121007E-08
    10    0.320000E+01   0.400000E+01   0.480000E+01   0.317023E-08   0.511162E-08  -0.260339E-08
    11    0.320000E+01   0.400000E+01   0.480000E+01  -0.209591E-08   0.554714E-08  -0.537423E-08
    12    0.320000E+01   0.400000E+01   0.480000E+01   0.611858E-09  -0.190108E-08  -0.343073E-08
    13    0.320000E+01   0.400000E+01   0.480000E+01  -0.110554E-09  -0.574273E-09   0.225182E-08
    14    0.320000E+01   0.400000E+01   0.480000E+01   0.179797E-08   0.791078E-08   0.156600E-08
    15    0.320000E+01   0.400000E+01   0.480000E+01   0.348095E-08   0.867360E-08   0.351730E-08
    16    0.320000E+01   0.400000E+01   0.480000E+01   0.780927E-09   0.132871E-07   0.421236E-08


 S O L U T I O N   T I M E   L O G   I N   S E C

     TIME FOR INPUT PHASE  . . . . . . . . . . . . . . =        0.00000
     TIME FOR CALCULATION OF STIFFNESS MATRIX  . . . . =        0.00000
     TIME FOR FACTORIZATION OF STIFFNESS MATRIX  . . . =        0.00000
     TIME FOR LOAD CASE SOLUTIONS  . . . . . . . . . . =        0.00000

      T O T A L   S O L U T I O N   T I M E  . . . . . =        0.00000
