Input phase ... 

 SHELL8Q                                                                         

 C O N T R O L   I N F O R M A T I O N

      NUMBER OF NODAL POINTS . . . . . . . . . . (NUMNP)  =     8
      NUMBER OF ELEMENT GROUPS . . . . . . . . . (NUMEG)  =     1
      NUMBER OF LOAD CASES . . . . . . . . . . . (NLCASE) =     1
      SOLUTION MODE  . . . . . . . . . . . . . . (MODEX)  =     1
         EQ.0, DATA CHECK
         EQ.1, EXECUTION


 N O D A L   P O I N T   D A T A

  NODE          BOUNDARY                         NODAL POINT
 NUMBER     CONDITION  CODES                     COORDINATES
               X    Y    Z   RX   RY   RZ               X            Y            Z
    1          1    1    1    1    1    1         0.000        0.000        0.000
    2          0    0    1    1    1    1        20.000        0.000        0.000
    3          0    0    1    1    1    1        20.000       30.000        0.000
    4          1    1    1    1    1    1         0.000       30.000        0.000
    5          0    0    1    1    1    1        10.000        0.000        0.000
    6          0    0    0    1    1    1        20.000       10.000        0.000
    7          0    0    1    1    1    1        10.000       30.000        0.000
    8          1    1    1    1    1    1         0.000       10.000        0.000


 EQUATION NUMBERS

   NODE         DEGREES OF FREEDOM
  NUMBER
     N             X    Y    Z   RX   RY   RZ
     1             0    0    0    0    0    0
     2             1    2    0    0    0    0
     3             3    4    0    0    0    0
     4             0    0    0    0    0    0
     5             5    6    0    0    0    0
     6             7    8    9    0    0    0
     7            10   11    0    0    0    0
     8             0    0    0    0    0    0


 L O A D   C A S E   D A T A

     LOAD CASE NUMBER . . . . . . . =     1
     NUMBER OF CONCENTRATED LOADS . =     6

    NODE       DIRECTION      LOAD
   NUMBER                   MAGNITUDE
      2            1        0.10000E+02
      3            1        0.10000E+02
      6            1        0.10000E+02
      2            4        0.10000E+02
      3            4        0.10000E+02
      6            4        0.10000E+02


 E L E M E N T   G R O U P   D A T A


 E L E M E N T   D E F I N I T I O N

 ELEMENT TYPE  . . . . . . . . . . . . .( NPAR(1) ) . . =    9
     EQ.1, TRUSS ELEMENTS
     EQ.2, ELEMENTS CURRENTLY
     EQ.3, NOT AVAILABLE

 NUMBER OF ELEMENTS. . . . . . . . . . .( NPAR(2) ) . . =    1

 M A T E R I A L   D E F I N I T I O N

 NUMBER OF DIFFERENT SETS OF MATERIAL
 AND CROSS-SECTIONAL  CONSTANTS  . . . .( NPAR(3) ) . . =    1

  SET       YOUNG'S     CROSS-SECTIONAL
 NUMBER     MODULUS          AREA
    1     0.10000E+11    0.300000E+00


 E L E M E N T   I N F O R M A T I O N

 ELEMENT     NODE     NODE     NODE     NODE       MATERIAL
 NUMBER-N      I        J        K        L       SET NUMBER
    1          1        2        3        4           1
Solution phase ... 


 TOTAL SYSTEM DATA

     NUMBER OF EQUATIONS . . . . . . . . . . . . . .(NEQ) =    11
     NUMBER OF MATRIX ELEMENTS . . . . . . . . . . .(NWK) =    66
     MAXIMUM HALF BANDWIDTH  . . . . . . . . . . . .(MK ) =    11
     MEAN HALF BANDWIDTH . . . . . . . . . . . . . .(MM ) =     6


 LOAD CASE   1


 D I S P L A C E M E N T S

  NODE    X-DISPLACEMENT  Y-DISPLACEMENT  Z-DISPLACEMENT  X-ROTATION  Y-ROTATION  Z-ROTATION
   1       0.000000E+00  0.000000E+00  0.000000E+00  0.000000E+00  0.000000E+00  0.000000E+00
   2       0.194736E-08  0.916107E-09  0.000000E+00  0.000000E+00  0.000000E+00  0.000000E+00
   3       0.194736E-08 -0.916107E-09  0.000000E+00  0.000000E+00  0.000000E+00  0.000000E+00
   4       0.000000E+00  0.000000E+00  0.000000E+00  0.000000E+00  0.000000E+00  0.000000E+00
   5       0.927875E-09  0.929568E-10  0.000000E+00  0.000000E+00  0.000000E+00  0.000000E+00
   6       0.520113E-09 -0.361892E-24  0.000000E+00  0.000000E+00  0.000000E+00  0.000000E+00
   7       0.927875E-09 -0.929568E-10  0.000000E+00  0.000000E+00  0.000000E+00  0.000000E+00
   8       0.000000E+00  0.000000E+00  0.000000E+00  0.000000E+00  0.000000E+00  0.000000E+00


 S T R E S S   I N F O R M A T I O N

           TAU_xx        TAU_yy        TAU_xy         TAU_yz       TAU_zx
ELEMENT  1
           0.10E+11      0.34E+10     -0.14E+10      0.00E+00      0.00E+00
           0.10E+11      0.34E+10      0.14E+10      0.00E+00      0.00E+00
           0.32E+10      0.14E+10     -0.41E-06      0.00E+00      0.00E+00
           0.10E+11     -0.35E+10     -0.29E+10      0.00E+00      0.00E+00
           0.10E+11     -0.35E+10      0.29E+10      0.00E+00      0.00E+00
           0.32E+10     -0.56E+10     -0.11E-05      0.00E+00      0.00E+00
           0.11E+11      0.23E+10     -0.22E+10      0.00E+00      0.00E+00
           0.11E+11      0.23E+10      0.22E+10      0.00E+00      0.00E+00
           0.39E+10      0.26E+09     -0.73E-06      0.00E+00      0.00E+00



                S T R E S S   R E C O V E R Y   A T   N O D A L   P O I N T S
  Node   |-----------------------------------------Stress----------------------------------------|
 Number     Sigma_XX       Sigma_YY       Sigma_ZZ       Sigma_XY       Sigma_YZ       Sigma_ZX
     1    0.114666E+11   0.343997E+10          ---  -0.158404E+10   0.000000E+00   0.000000E+00
     2    0.114666E+11  -0.550857E+10          ---  -0.353609E+10   0.000000E+00   0.000000E+00
     3    0.180324E+11  -0.353883E+10          ---   0.393583E+10   0.000000E+00   0.000000E+00
     4    0.180324E+11   0.540971E+10          ---   0.100774E+10   0.000000E+00   0.000000E+00
     5    0.126423E+11   0.288467E+10          ---  -0.256006E+10   0.000000E+00   0.000000E+00
     6    0.271216E+10  -0.813489E+10          ---  -0.162671E+09   0.000000E+00   0.000000E+00
     7    0.192081E+11   0.485441E+10          ---   0.247179E+10   0.000000E+00   0.000000E+00
     8    0.271216E+10   0.813649E+09          ---   0.162671E+09   0.000000E+00   0.000000E+00


 S O L U T I O N   T I M E   L O G   I N   S E C

     TIME FOR INPUT PHASE  . . . . . . . . . . . . . . =        0.00000
     TIME FOR CALCULATION OF STIFFNESS MATRIX  . . . . =        0.00000
     TIME FOR FACTORIZATION OF STIFFNESS MATRIX  . . . =        0.00000
     TIME FOR LOAD CASE SOLUTIONS  . . . . . . . . . . =        0.00400

      T O T A L   S O L U T I O N   T I M E  . . . . . =        0.00400
