#vtk DataFile Version 3.0
Patch Test                                                                      
ASCII
DATASET UNSTRUCTURED GRID
 POINTS           27  float
   0.0000000000000000        0.0000000000000000        10.000000000000000     
   5.0000000000000000        0.0000000000000000        10.000000000000000     
   10.000000000000000        0.0000000000000000        10.000000000000000     
   0.0000000000000000        5.0000000000000000        10.000000000000000     
   5.0000000000000000        5.0000000000000000        10.000000000000000     
   10.000000000000000        5.0000000000000000        10.000000000000000     
   0.0000000000000000        10.000000000000000        10.000000000000000     
   5.0000000000000000        10.000000000000000        10.000000000000000     
   10.000000000000000        10.000000000000000        10.000000000000000     
   0.0000000000000000        0.0000000000000000        5.0000000000000000     
   5.0000000000000000        0.0000000000000000        5.0000000000000000     
   10.000000000000000        0.0000000000000000        5.0000000000000000     
   0.0000000000000000        5.0000000000000000        5.0000000000000000     
   4.0000000000000000        6.0000000000000000        7.0000000000000000     
   10.000000000000000        5.0000000000000000        5.0000000000000000     
   0.0000000000000000        10.000000000000000        5.0000000000000000     
   5.0000000000000000        10.000000000000000        5.0000000000000000     
   10.000000000000000        10.000000000000000        5.0000000000000000     
   0.0000000000000000        0.0000000000000000        0.0000000000000000     
   5.0000000000000000        0.0000000000000000        0.0000000000000000     
   10.000000000000000        0.0000000000000000        0.0000000000000000     
   0.0000000000000000        5.0000000000000000        0.0000000000000000     
   5.0000000000000000        5.0000000000000000        0.0000000000000000     
   10.000000000000000        5.0000000000000000        0.0000000000000000     
   0.0000000000000000        10.000000000000000        0.0000000000000000     
   5.0000000000000000        10.000000000000000        0.0000000000000000     
   10.000000000000000        10.000000000000000        0.0000000000000000     
 FIELD Result           2
Displacement_of_Load_Case1   3       27  float
   5.8774657051480056E-020  -6.0000000000000008E-005  -1.2000000000000011E-004   5.3521894354631103E-020  -5.9999999999999913E-005  -1.1999999999999992E-004   1.4907779871675686E-019  -5.9999999999999913E-005  -1.1999999999999981E-004  -1.0435442850950956E-020  -6.0000000000000035E-005  -1.2000000000000004E-004   8.4703294725430034E-022  -4.7999999999999954E-005  -1.1999999999999996E-004   6.0986372202309624E-020  -5.9999999999999941E-005  -1.1999999999999995E-004   0.0000000000000000       -6.0000000000000076E-005  -1.2000000000000004E-004   0.0000000000000000       -6.0000000000000029E-005  -1.2000000000000004E-004   0.0000000000000000       -6.0000000000000002E-005  -1.2000000000000002E-004
   1.4907779871675686E-019   0.0000000000000000       -2.7105054312137611E-020  -5.9999999999999947E-005  -6.0000000000000022E-005  -6.0000000000000035E-005  -1.1999999999999994E-004  -1.1999999999999994E-004  -1.2000000000000002E-004   9.4867690092481638E-020   1.3552527156068805E-020  -2.5410988417629010E-020  -5.9999999999999968E-005  -7.1999999999999961E-005  -6.0000000000000049E-005  -1.1999999999999999E-004  -1.2000000000000002E-004  -1.2000000000000004E-004   0.0000000000000000        0.0000000000000000        0.0000000000000000       -5.9999999999999941E-005  -5.9999999999999995E-005  -5.9999999999999988E-005  -1.1999999999999998E-004  -1.2000000000000004E-004  -1.1999999999999999E-004
   4.8000000000000034E-004   4.8000000000000007E-004   4.8000000000000017E-004   4.8000000000000007E-004   4.8000000000000017E-004   4.7999999999999996E-004   4.8000000000000017E-004   4.8000000000000001E-004   4.7999999999999990E-004   2.4000000000000011E-004   2.3999999999999990E-004   2.3999999999999998E-004   2.4000000000000001E-004   3.3600000000000025E-004   2.3999999999999984E-004   2.4000000000000014E-004   2.3999999999999998E-004   2.4000000000000003E-004   0.0000000000000000        0.0000000000000000        0.0000000000000000        0.0000000000000000        0.0000000000000000        0.0000000000000000        0.0000000000000000        0.0000000000000000        0.0000000000000000     
Stress_of_Load_Case1   6       27  float
   3.4694469519536142E-018  -3.2031397933368622E-017   0.0000000000000000       -7.6436253160228063E-018  -9.0734169309880652E-017  -3.7404974950749903E-018                       NaN   5.1770653736182837E-018   3.6862873864507151E-018  -1.0549287138283958E-016  -2.4158226688639900E-017  -1.5239816786999372E-017  -6.2570323813675166E-018   3.0729296535201948E-017   2.8041025718853613E-017   1.9496157346952231E-017  -1.0232835629189752E-016  -6.5475646822757416E-019                       NaN   2.7511630126819675E-018   4.3368086899420177E-018   2.3107058801097313E-018   7.5172903519398274E-017  -2.1114837309155199E-017                       NaN  -1.3281476612947429E-018  -5.4210108624275222E-020
  -2.6020852139652106E-018   2.3872776585415201E-017   2.3852447794681098E-018   1.0896231833479320E-017   3.9139698426726710E-017   2.7105054312137611E-018                       NaN  -4.1335207826009857E-018   7.2641545556528797E-018   2.5897524142531880E-016   3.4246389090438617E-017   4.5211230592645535E-017  -1.8483105942036088E-017  -1.8528210446477379E-017   2.1043686541585838E-017  -8.7718732017655343E-018  -1.0028870095490916E-016  -4.4340057206394487E-018                       NaN  -1.3281476612947429E-018   3.4694469519536142E-018  -2.7460808149984417E-018  -3.6427816566973661E-017   3.0574501264091225E-017                       NaN  -6.5729756706933706E-018   1.7347234759768071E-018
 -0.62500000000000000       0.11035156250000000        5.0781250000000000E-002  -6.9335937500000000E-002  -1.2402343750000000        6.3476562500000000E-002                       NaN   7.1044921875000000E-002   8.2031250000000000E-002  -1.8515625000000000       0.15708923339843750       0.31152343750000000      -0.18022155761718750        4.9142837524414062E-002  0.30697631835937500       0.53111267089843750       -1.5249023437500000        3.4036636352539062E-003                       NaN  -6.4941406250000000E-002   0.0000000000000000        6.0554504394531250E-002  0.81089782714843750      -0.63476562500000000                            NaN  0.10095214843750000        0.0000000000000000     
  -1.0408340855860843E-017   9.6399125661117413E-017   1.9949319973733282E-017   2.6237692574149207E-017   1.9479047281417694E-016   1.6263032587282567E-017                       NaN  -3.8116482626443515E-018  -1.0842021724855044E-018   1.1080546202801855E-016   3.8008062409194965E-017   2.4958334010616312E-016  -1.0806022824596737E-017  -5.5336980081478662E-017  -2.1648468065925408E-017   1.6532389064509434E-017  -3.0571113132302208E-017   8.1391925297257754E-019                       NaN   2.7579392762600019E-018   6.0715321659188248E-018   7.2781305992825757E-019   1.9283128560717774E-017  -2.3256136599814070E-017                       NaN   1.2434443665693129E-018   6.5052130349130266E-019
   1.9515639104739080E-017  -4.4723339615027058E-019  -5.4210108624275222E-018  -1.1736488517155585E-017  -4.4723339615027058E-018   5.1228552649940085E-018                       NaN  -4.3910187985662930E-018  -1.1926223897340549E-017   7.9320230939039504E-016   4.5693827614343673E-017  -1.5119538108489261E-017   2.8401014721436690E-018  -1.2053702355902321E-017   6.0374814414392020E-017  -3.7865760874056242E-017   1.9808373691310166E-016  -1.2465148610031097E-018                       NaN   4.4452289071905682E-018   3.4694469519536142E-018  -8.9302683629020885E-018  -3.6832380678405996E-017  -1.7780915628762273E-017                       NaN  -4.8789097761847700E-018  -1.3010426069826053E-018
   1.6263032587282567E-017  -6.3696877633523385E-017   3.4694469519536142E-018   2.3472977034311171E-017   2.1285599151321666E-016  -6.3967928176644762E-018                       NaN  -2.1741641690123381E-017  -1.6046192152785466E-017   3.1417468453198705E-016  -7.3183646642771549E-018  -3.0379344873043834E-016  -3.0301756655075340E-017  -4.7836820970897052E-017  -5.4731880919783871E-017   2.4750302718770656E-017  -6.1697879878003237E-018   2.6281314770932804E-018                       NaN  -4.8246996675604947E-018  -1.5612511283791264E-017   3.8362122181147262E-018   8.7553560592940755E-018   5.8113236445223038E-017                       NaN   1.4501204056993622E-018  -8.6736173798840355E-019
 CELLS            8          64
