Input phase ... 

 Patch Test                                                                      

 C O N T R O L   I N F O R M A T I O N

      NUMBER OF NODAL POINTS . . . . . . . . . . (NUMNP)  =    27
      NUMBER OF ELEMENT GROUPS . . . . . . . . . (NUMEG)  =     1
      NUMBER OF LOAD CASES . . . . . . . . . . . (NLCASE) =     1
      SOLUTION MODE  . . . . . . . . . . . . . . (MODEX)  =     1
         EQ.0, DATA CHECK
         EQ.1, EXECUTION


 N O D A L   P O I N T   D A T A

  NODE          BOUNDARY                         NODAL POINT
 NUMBER     CONDITION  CODES                     COORDINATES
               X    Y    Z               X            Y            Z
    1          0    0    0              0.000        0.000       10.000
    2          0    0    0              5.000        0.000       10.000
    3          0    0    0             10.000        0.000       10.000
    4          0    0    0              0.000        5.000       10.000
    5          0    0    0              5.000        5.000       10.000
    6          0    0    0             10.000        5.000       10.000
    7          0    0    0              0.000       10.000       10.000
    8          0    0    0              5.000       10.000       10.000
    9          0    0    0             10.000       10.000       10.000
   10          0    0    0              0.000        0.000        5.000
   11          0    0    0              5.000        0.000        5.000
   12          0    0    0             10.000        0.000        5.000
   13          0    0    0              0.000        5.000        5.000
   14          0    0    0              4.000        6.000        7.000
   15          0    0    0             10.000        5.000        5.000
   16          0    0    0              0.000       10.000        5.000
   17          0    0    0              5.000       10.000        5.000
   18          0    0    0             10.000       10.000        5.000
   19          1    1    1              0.000        0.000        0.000
   20          0    1    1              5.000        0.000        0.000
   21          0    1    1             10.000        0.000        0.000
   22          1    0    1              0.000        5.000        0.000
   23          0    0    1              5.000        5.000        0.000
   24          0    0    1             10.000        5.000        0.000
   25          1    0    1              0.000       10.000        0.000
   26          0    0    1              5.000       10.000        0.000
   27          0    0    1             10.000       10.000        0.000


 EQUATION NUMBERS

   NODE         DEGREES OF FREEDOM
  NUMBER
     N             X    Y    Z
     1             1    2    3
     2             4    5    6
     3             7    8    9
     4            10   11   12
     5            13   14   15
     6            16   17   18
     7            19   20   21
     8            22   23   24
     9            25   26   27
    10            28   29   30
    11            31   32   33
    12            34   35   36
    13            37   38   39
    14            40   41   42
    15            43   44   45
    16            46   47   48
    17            49   50   51
    18            52   53   54
    19             0    0    0
    20            55    0    0
    21            56    0    0
    22             0   57    0
    23            58   59    0
    24            60   61    0
    25             0   62    0
    26            63   64    0
    27            65   66    0


 L O A D   C A S E   D A T A

     LOAD CASE NUMBER . . . . . . . =     1
     NUMBER OF CONCENTRATED LOADS . =     9

    NODE       DIRECTION      LOAD
   NUMBER                   MAGNITUDE
      9            3        0.30000E+00
      8            3        0.60000E+00
      7            3        0.30000E+00
      6            3        0.60000E+00
      5            3        0.12000E+01
      4            3        0.60000E+00
      3            3        0.30000E+00
      2            3        0.60000E+00
      1            3        0.30000E+00


 E L E M E N T   G R O U P   D A T A


 E L E M E N T   D E F I N I T I O N

 ELEMENT TYPE  . . . . . . . . . . . . .( NPAR(1) ) . . =    4
     EQ.1, TRUSS ELEMENTS
     EQ.2, 2D TRIANGLE
     EQ.3, 2D QUADRANGLE
     EQ.4, 3D HEXAHEDRAL

 NUMBER OF ELEMENTS. . . . . . . . . . .( NPAR(2) ) . . =    8

 M A T E R I A L   D E F I N I T I O N

 NUMBER OF DIFFERENT SETS OF MATERIAL
 AND CROSS-SECTIONAL  CONSTANTS  . . . .( NPAR(3) ) . . =    1

  SET       YOUNG'S    POISSON
 NUMBER     MODULUS      RATIO
               E            v
    1     0.10000E+04    0.250000E+00


 E L E M E N T   I N F O R M A T I O N

 ELEMENT        |------------------------- NODES -------------------------|       MATERIAL
 NUMBER-N        1       2       3       4       5       6       7       8       SET NUMBER
      1           1       4       5       2      10      13      14      11        1
      2           4       7       8       5      13      16      17      14        1
      3           2       5       6       3      11      14      15      12        1
      4           5       8       9       6      14      17      18      15        1
      5          10      13      14      11      19      22      23      20        1
      6          13      16      17      14      22      25      26      23        1
      7          11      14      15      12      20      23      24      21        1
      8          14      17      18      15      23      26      27      24        1
Solution phase ... 


 TOTAL SYSTEM DATA

     NUMBER OF EQUATIONS . . . . . . . . . . . . . .(NEQ) =    66
     NUMBER OF MATRIX ELEMENTS . . . . . . . . . . .(NWK) =  1611
     MAXIMUM HALF BANDWIDTH  . . . . . . . . . . . .(MK ) =    42
     MEAN HALF BANDWIDTH . . . . . . . . . . . . . .(MM ) =    24


 LOAD CASE   1


 D I S P L A C E M E N T S

  NODE           X-DISPLACEMENT    Y-DISPLACEMENT    Z-DISPLACEMENT
   1              0.58775E-19      0.14908E-18      0.48000E-03
   2             -0.60000E-04      0.00000E+00      0.48000E-03
   3             -0.12000E-03     -0.27105E-19      0.48000E-03
   4              0.53522E-19     -0.60000E-04      0.48000E-03
   5             -0.60000E-04     -0.60000E-04      0.48000E-03
   6             -0.12000E-03     -0.60000E-04      0.48000E-03
   7              0.14908E-18     -0.12000E-03      0.48000E-03
   8             -0.60000E-04     -0.12000E-03      0.48000E-03
   9             -0.12000E-03     -0.12000E-03      0.48000E-03
  10             -0.10435E-19      0.94868E-19      0.24000E-03
  11             -0.60000E-04      0.13553E-19      0.24000E-03
  12             -0.12000E-03     -0.25411E-19      0.24000E-03
  13              0.84703E-21     -0.60000E-04      0.24000E-03
  14             -0.48000E-04     -0.72000E-04      0.33600E-03
  15             -0.12000E-03     -0.60000E-04      0.24000E-03
  16              0.60986E-19     -0.12000E-03      0.24000E-03
  17             -0.60000E-04     -0.12000E-03      0.24000E-03
  18             -0.12000E-03     -0.12000E-03      0.24000E-03
  19              0.00000E+00      0.00000E+00      0.00000E+00
  20             -0.60000E-04      0.00000E+00      0.00000E+00
  21             -0.12000E-03      0.00000E+00      0.00000E+00
  22              0.00000E+00     -0.60000E-04      0.00000E+00
  23             -0.60000E-04     -0.60000E-04      0.00000E+00
  24             -0.12000E-03     -0.60000E-04      0.00000E+00
  25              0.00000E+00     -0.12000E-03      0.00000E+00
  26             -0.60000E-04     -0.12000E-03      0.00000E+00
  27             -0.12000E-03     -0.12000E-03      0.00000E+00


 S T R E S S  C A L C U L A T I O N S  F O R  E L E M E N T  G R O U P   1

  ELEMENT             COORDINSTES                   Sigma_xx         Sigma_yy         Sigma_zz         Sigma_xy         Sigma_yz         Sigma_xz
  NUMBER        X          Y          Z
     1       3.4528       4.4339       7.0377     0.138778E-16     0.138778E-16     0.480000E-01     0.686295E-17     0.298156E-16     0.216840E-16
             3.8119       4.0748       9.2063    -0.693889E-17    -0.138778E-16     0.480000E-01    -0.103660E-17     0.203288E-17     0.162630E-16
             0.9252       4.0748       6.3195     0.000000E+00    -0.693889E-17     0.480000E-01    -0.136671E-17     0.000000E+00     0.176183E-16
             1.0214       3.9786       9.0138     0.173472E-16     0.346945E-17     0.480000E-01    -0.954513E-17    -0.274439E-16     0.101644E-16
             3.8119       1.1881       6.3195     0.346945E-17     0.346945E-17     0.480000E-01    -0.389669E-17     0.108420E-16    -0.162630E-16
             3.9082       1.0918       9.0138     0.000000E+00     0.346945E-17     0.480000E-01    -0.977110E-17     0.115196E-16    -0.135525E-16
             1.0214       1.0918       6.1271     0.346945E-17     0.000000E+00     0.480000E-01    -0.100883E-16    -0.542101E-17    -0.108420E-16
             1.0472       1.0661       8.9623     0.000000E+00    -0.693889E-17     0.480000E-01    -0.162721E-16    -0.221923E-16    -0.230393E-16

     2       3.8119       9.0748       6.3195     0.000000E+00     0.693889E-17     0.480000E-01     0.271051E-17    -0.216840E-16     0.000000E+00
             3.9082       8.9786       9.0138     0.000000E+00     0.138778E-16     0.480000E-01     0.135525E-17    -0.677626E-17    -0.575982E-17
             1.0214       8.9786       6.1271     0.000000E+00     0.000000E+00     0.480000E-01     0.542101E-17     0.162630E-16    -0.813152E-17
             1.0472       8.9528       8.9623     0.693889E-17     0.173472E-16     0.480000E-01     0.821622E-17     0.257498E-16    -0.372694E-17
             3.4528       6.5472       7.0377    -0.277556E-16    -0.346945E-16     0.480000E-01     0.542101E-17    -0.542101E-16     0.542101E-16
             3.8119       6.1881       9.2063     0.693889E-17     0.138778E-16     0.480000E-01    -0.440457E-17    -0.189735E-16     0.108420E-16
             0.9252       6.1881       6.3195     0.138778E-16     0.138778E-16     0.480000E-01     0.813152E-17     0.542101E-17     0.433681E-16
             1.0214       6.0918       9.0138     0.208167E-16     0.208167E-16     0.480000E-01     0.169407E-17     0.111808E-16     0.108420E-16

     3       8.8119       4.0748       6.3195     0.693889E-17     0.346945E-17     0.480000E-01     0.661877E-17    -0.813152E-17    -0.298156E-16
             8.9082       3.9786       9.0138    -0.693889E-17     0.000000E+00     0.480000E-01     0.175124E-16    -0.162630E-16    -0.150772E-16
             5.5661       4.4339       7.0377     0.346945E-17     0.346945E-17     0.480000E-01     0.123021E-17     0.203288E-16    -0.243945E-16
             5.9252       4.0748       9.2063    -0.693889E-17    -0.693889E-17     0.480000E-01     0.114524E-16     0.423516E-17    -0.206676E-16
             8.9082       1.0918       6.1271     0.693889E-17     0.104083E-16     0.480000E-01     0.998984E-17    -0.135525E-16    -0.271051E-17
             8.9339       1.0661       8.9623     0.000000E+00     0.693889E-17     0.480000E-01     0.176756E-16    -0.677626E-17    -0.474338E-17
             5.9252       1.1881       6.3195    -0.346945E-17     0.346945E-17     0.480000E-01     0.438670E-17     0.150772E-16    -0.271051E-17
             6.0214       1.0918       9.0138     0.000000E+00     0.346945E-17     0.480000E-01     0.132340E-16    -0.287991E-17     0.813152E-17

     4       8.9082       8.9786       6.1271    -0.104083E-16    -0.104083E-16     0.480000E-01    -0.186347E-17     0.108420E-16     0.609864E-17
             8.9339       8.9528       8.9623     0.104083E-16     0.693889E-17     0.480000E-01     0.389635E-17     0.000000E+00    -0.847033E-18
             5.9252       9.0748       6.3195     0.693889E-17     0.346945E-17     0.480000E-01     0.169407E-18    -0.176183E-16    -0.677626E-17
             6.0214       8.9786       9.0138     0.242861E-16     0.208167E-16     0.480000E-01    -0.584453E-17    -0.210064E-16    -0.948677E-17
             8.8119       6.1881       6.3195     0.693889E-17     0.693889E-17     0.480000E-01    -0.338813E-17     0.162630E-16    -0.216840E-16
             8.9082       6.0918       9.0138     0.104083E-16     0.104083E-16     0.480000E-01     0.626804E-17    -0.271051E-17    -0.121973E-16
             5.5661       6.5472       7.0377     0.000000E+00    -0.693889E-17     0.480000E-01    -0.880914E-17    -0.243945E-16    -0.379471E-16
             5.9252       6.1881       9.2063    -0.693889E-17    -0.346945E-17     0.480000E-01    -0.321873E-17    -0.155854E-16    -0.372694E-16

     5       3.8119       4.0748       1.3195     0.346945E-17     0.104083E-16     0.480000E-01    -0.135525E-17     0.948677E-17     0.762330E-17
             3.4528       4.4339       4.9245     0.693889E-17     0.693889E-17     0.480000E-01     0.237169E-17     0.264274E-16     0.220229E-16
             1.0214       3.9786       1.1271    -0.346945E-17     0.693889E-17     0.480000E-01    -0.542101E-17    -0.118585E-17     0.715743E-17
             0.9252       4.0748       4.2063     0.693889E-17     0.346945E-17     0.480000E-01     0.156701E-17     0.135525E-17     0.183383E-16
             3.9082       1.0918       1.1271    -0.346945E-17     0.346945E-17     0.480000E-01     0.203288E-17     0.121973E-16     0.135525E-17
             3.8119       1.1881       4.2063    -0.346945E-17     0.346945E-17     0.480000E-01    -0.101115E-17     0.274439E-16    -0.210064E-16
             1.0472       1.0661       1.0755    -0.693889E-17     0.693889E-17     0.480000E-01    -0.152466E-17     0.974088E-17    -0.169407E-17
             1.0214       1.0918       4.0138    -0.346945E-17    -0.346945E-17     0.480000E-01    -0.563277E-17     0.423516E-17    -0.162630E-16

     6       3.9082       8.9786       1.1271    -0.346945E-17    -0.693889E-17     0.480000E-01    -0.271051E-17    -0.135525E-17     0.423516E-17
             3.8119       9.0748       4.2063    -0.346945E-17    -0.693889E-17     0.480000E-01     0.677626E-18    -0.237169E-16    -0.186347E-17
             1.0472       8.9528       1.0755     0.104083E-16     0.346945E-17     0.480000E-01    -0.847033E-17     0.931736E-18     0.482809E-17
             1.0214       8.9786       4.0138     0.693889E-17    -0.346945E-17     0.480000E-01     0.931736E-18     0.660686E-17    -0.770800E-17
             3.8119       6.1881       1.3195     0.104083E-16     0.346945E-17     0.480000E-01    -0.271051E-17    -0.271051E-17     0.108420E-16
             3.4528       6.5472       4.9245     0.138778E-16     0.000000E+00     0.480000E-01     0.609864E-17    -0.128749E-16     0.230393E-16
             1.0214       6.0918       1.1271    -0.693889E-17    -0.104083E-16     0.480000E-01    -0.406576E-17     0.355754E-17     0.965618E-17
             0.9252       6.1881       4.2063     0.346945E-17    -0.346945E-17     0.480000E-01     0.914796E-17     0.406576E-17     0.247334E-16

     7       8.9082       3.9786       1.1271    -0.346945E-17     0.000000E+00     0.480000E-01    -0.135525E-17    -0.406576E-17     0.304932E-17
             8.8119       4.0748       4.2063    -0.346945E-17    -0.346945E-17     0.480000E-01    -0.338813E-18    -0.609864E-17    -0.287991E-16
             5.9252       4.0748       1.3195     0.346945E-17     0.346945E-17     0.480000E-01     0.372694E-17     0.880914E-17    -0.397047E-17
             5.5661       4.4339       4.9245     0.693889E-17     0.693889E-17     0.480000E-01     0.338813E-18     0.220229E-16    -0.227005E-16
             8.9339       1.0661       1.0755     0.346945E-17     0.000000E+00     0.480000E-01     0.135525E-17    -0.643745E-17     0.406576E-17
             8.9082       1.0918       4.0138     0.346945E-17    -0.346945E-17     0.480000E-01     0.440457E-17    -0.372694E-17    -0.271051E-17
             6.0214       1.0918       1.1271     0.693889E-17     0.693889E-17     0.480000E-01     0.575982E-17     0.813152E-17     0.508220E-17
             5.9252       1.1881       4.2063     0.346945E-17     0.000000E+00     0.480000E-01     0.364224E-17     0.300697E-16     0.677626E-17

     8       8.9339       8.9528       1.0755     0.000000E+00     0.000000E+00     0.480000E-01     0.948677E-17    -0.508220E-17     0.914796E-17
             8.9082       8.9786       4.0138    -0.346945E-17    -0.693889E-17     0.480000E-01    -0.847033E-19     0.372694E-17     0.609864E-17
             6.0214       8.9786       1.1271    -0.346945E-17    -0.693889E-17     0.480000E-01     0.847033E-17    -0.173642E-17     0.940207E-17
             5.9252       9.0748       4.2063     0.000000E+00    -0.693889E-17     0.480000E-01     0.355754E-17    -0.182959E-16     0.448927E-17
             8.9082       6.0918       1.1271    -0.693889E-17    -0.693889E-17     0.480000E-01     0.000000E+00    -0.271051E-17     0.000000E+00
             8.8119       6.1881       4.2063    -0.346945E-17    -0.104083E-16     0.480000E-01    -0.121602E-16     0.101644E-16    -0.176183E-16
             5.9252       6.1881       1.3195     0.693889E-17    -0.346945E-17     0.480000E-01     0.406576E-17    -0.847033E-18    -0.220229E-17
             5.5661       6.5472       4.9245     0.693889E-17     0.000000E+00     0.480000E-01    -0.118585E-17    -0.238863E-16    -0.186347E-16




                S T R E S S   R E C O V E R Y   A T   N O D A L   P O I N T S
  Node   |-----------------------------------------Stress----------------------------------------|
 Number     Sigma_XX       Sigma_YY       Sigma_ZZ       Sigma_XY       Sigma_YZ       Sigma_ZX
     1    0.114129E-17  -0.919195E-17   0.480000E-01  -0.266547E-16  -0.458975E-16  -0.341317E-16
     2   -0.347809E-17  -0.520067E-18   0.480000E-01   0.430703E-18  -0.132984E-16  -0.898690E-17
     3   -0.306180E-17   0.675456E-17   0.480000E-01   0.258468E-16  -0.275023E-16   0.102116E-16
     4    0.154193E-16   0.118071E-16   0.480000E-01  -0.613528E-17   0.560866E-18  -0.182235E-17
     5   -0.145598E-17   0.461713E-17   0.480000E-01  -0.118479E-17  -0.288044E-17  -0.189886E-16
     6    0.413747E-17   0.762040E-17   0.480000E-01   0.147337E-16  -0.875612E-17  -0.630931E-17
     7    0.241152E-16   0.401873E-16   0.480000E-01   0.664834E-17   0.638004E-16  -0.406843E-16
     8    0.126121E-16   0.202800E-16   0.480000E-01   0.179052E-17  -0.519920E-18  -0.141829E-16
     9    0.179415E-16   0.171328E-16   0.480000E-01   0.781518E-17   0.556188E-17   0.202422E-16
    10   -0.304175E-17  -0.267831E-17   0.480000E-01  -0.123402E-16  -0.134284E-16  -0.236601E-16
    11    0.199941E-16   0.275233E-16   0.480000E-01   0.262815E-17   0.527146E-16  -0.813993E-17
    12    0.206388E-17   0.327268E-17   0.480000E-01   0.105092E-16  -0.163159E-16   0.588150E-17
    13    0.115245E-16   0.172834E-16   0.480000E-01   0.562173E-18   0.862987E-17  -0.223479E-17
    14    0.401785E-17   0.115454E-17   0.480000E-01   0.882082E-18  -0.171279E-17   0.124616E-18
    15    0.308612E-17   0.164879E-17   0.480000E-01   0.360553E-17  -0.691817E-17  -0.241115E-16
    16    0.707847E-17   0.805613E-17   0.480000E-01   0.302636E-17   0.250453E-16  -0.129482E-16
    17    0.125479E-16   0.297833E-16   0.480000E-01   0.232818E-18   0.160265E-16  -0.186843E-16
    18    0.651934E-18   0.374918E-18   0.480000E-01   0.439039E-17   0.916790E-17   0.169877E-16
    19   -0.120831E-16   0.185850E-17   0.480000E-01  -0.556639E-17  -0.545010E-17  -0.151569E-16
    20   -0.300507E-17   0.297472E-17   0.480000E-01   0.945523E-18   0.267933E-17   0.206016E-17
    21    0.787668E-18  -0.274042E-17   0.480000E-01   0.330078E-17  -0.166313E-16   0.166124E-16
    22   -0.272054E-17   0.101638E-17   0.480000E-01  -0.636507E-17   0.272826E-17   0.408335E-17
    23    0.809432E-17   0.125008E-16   0.480000E-01   0.182478E-17   0.210852E-18   0.145242E-16
    24   -0.429027E-17  -0.412545E-17   0.480000E-01   0.278057E-17  -0.470927E-17   0.809988E-17
    25   -0.986224E-18  -0.397863E-17   0.480000E-01  -0.114165E-16   0.123471E-16  -0.103747E-16
    26   -0.216076E-17  -0.364804E-17   0.480000E-01   0.172253E-17  -0.616755E-18   0.690749E-17
    27   -0.847741E-17  -0.568510E-17   0.480000E-01   0.107519E-16   0.799538E-17   0.233466E-16


 S O L U T I O N   T I M E   L O G   I N   S E C

     TIME FOR INPUT PHASE  . . . . . . . . . . . . . . =        0.00000
     TIME FOR CALCULATION OF STIFFNESS MATRIX  . . . . =        0.00000
     TIME FOR FACTORIZATION OF STIFFNESS MATRIX  . . . =        0.00000
     TIME FOR LOAD CASE SOLUTIONS  . . . . . . . . . . =        0.00000

      T O T A L   S O L U T I O N   T I M E  . . . . . =        0.00000
