Input phase ... 

 SHELL                                                                           

 C O N T R O L   I N F O R M A T I O N

      NUMBER OF NODAL POINTS . . . . . . . . . . (NUMNP)  =     4
      NUMBER OF ELEMENT GROUPS . . . . . . . . . (NUMEG)  =     1
      NUMBER OF LOAD CASES . . . . . . . . . . . (NLCASE) =     1
      SOLUTION MODE  . . . . . . . . . . . . . . (MODEX)  =     1
         EQ.0, DATA CHECK
         EQ.1, EXECUTION


 N O D A L   P O I N T   D A T A

  NODE          BOUNDARY                         NODAL POINT
 NUMBER     CONDITION  CODES                     COORDINATES
               X    Y    Z   RX   RY   RZ               X            Y            Z
    1          1    1    1    1    1    1         0.000     1000.000        0.000
    2          1    1    1    1    1    1         0.000        0.000        0.000
    3          0    0    0    0    0    1      1000.000        0.000        0.000
    4          0    0    0    0    0    1      1000.000     1000.000        0.000


 EQUATION NUMBERS

   NODE         DEGREES OF FREEDOM
  NUMBER
     N             X    Y    Z   RX   RY   RZ
     1             0    0    0    0    0    0
     2             0    0    0    0    0    0
     3             1    2    3    4    5    0
     4             6    7    8    9   10    0


 L O A D   C A S E   D A T A

     LOAD CASE NUMBER . . . . . . . =     1
     NUMBER OF CONCENTRATED LOADS . =     4

    NODE       DIRECTION      LOAD
   NUMBER                   MAGNITUDE
      3            1        0.10000E+03
      4            1        0.10000E+03
      3            4        0.10000E+03
      4            4        0.10000E+03


 E L E M E N T   G R O U P   D A T A


 E L E M E N T   D E F I N I T I O N

 ELEMENT TYPE  . . . . . . . . . . . . .( NPAR(1) ) . . =    7
     EQ.1, TRUSS ELEMENTS
     EQ.2, ELEMENTS CURRENTLY
     EQ.3, NOT AVAILABLE

 NUMBER OF ELEMENTS. . . . . . . . . . .( NPAR(2) ) . . =    1

 M A T E R I A L   D E F I N I T I O N

 NUMBER OF DIFFERENT SETS OF MATERIAL
 AND CROSS-SECTIONAL  CONSTANTS  . . . .( NPAR(3) ) . . =    1

  SET       YOUNG'S     CROSS-SECTIONAL
 NUMBER     MODULUS          AREA
    1     0.10000E+11    0.300000E+00


 E L E M E N T   I N F O R M A T I O N

 ELEMENT     NODE     NODE     NODE     NODE       MATERIAL
 NUMBER-N      I        J        K        L       SET NUMBER
    1          1        2        3        4           1
Solution phase ... 


 TOTAL SYSTEM DATA

     NUMBER OF EQUATIONS . . . . . . . . . . . . . .(NEQ) =    10
     NUMBER OF MATRIX ELEMENTS . . . . . . . . . . .(NWK) =    55
     MAXIMUM HALF BANDWIDTH  . . . . . . . . . . . .(MK ) =    10
     MEAN HALF BANDWIDTH . . . . . . . . . . . . . .(MM ) =     5


 LOAD CASE   1


 D I S P L A C E M E N T S

  NODE    X-DISPLACEMENT  Y-DISPLACEMENT  Z-DISPLACEMENT  X-ROTATION  Y-ROTATION  Z-ROTATION
   1       0.000000E+00  0.000000E+00  0.000000E+00  0.000000E+00  0.000000E+00  0.000000E+00
   2       0.000000E+00  0.000000E+00  0.000000E+00  0.000000E+00  0.000000E+00  0.000000E+00
   3       0.279424E-06  0.578118E-07  0.670616E-02  0.335308E-05  0.693741E-06  0.000000E+00
   4       0.279424E-06 -0.578118E-07  0.670616E-02  0.335308E-05 -0.693741E-06  0.000000E+00


 S T R E S S   I N F O R M A T I O N

           TAU_xx        TAU_yy        TAU_xy         TAU_yz       TAU_zx
ELEMENT  1
          -0.20E+04     -0.61E+03     -0.19E+03     -0.13E+05     -0.26E+08
          -0.20E+04     -0.61E+03     -0.71E+03     -0.13E+05     -0.26E+08
          -0.54E+03     -0.16E+03     -0.19E+03     -0.13E+05     -0.26E+08
          -0.54E+03     -0.16E+03     -0.71E+03     -0.13E+05     -0.26E+08



                S T R E S S   R E C O V E R Y   A T   N O D A L   P O I N T S
  Node   |-----------------------------------------Stress----------------------------------------|
 Number     Sigma_XX       Sigma_YY       Sigma_ZZ       Sigma_XY       Sigma_YZ       Sigma_ZX
     1   -0.502018E+04  -0.711905E+07          ---   0.179160E+03  -0.101808E+05  -0.186746E+08
     2   -0.591243E+04  -0.923384E+07          ---  -0.438189E+03  -0.925641E+04  -0.165598E+08
     3   -0.591243E+04  -0.923384E+07          ---  -0.438189E+03  -0.925641E+04  -0.165598E+08
     4   -0.123313E+05  -0.244522E+08          ---  -0.642753E+03  -0.730752E+03  -0.134078E+07


 S O L U T I O N   T I M E   L O G   I N   S E C

     TIME FOR INPUT PHASE  . . . . . . . . . . . . . . =        0.00000
     TIME FOR CALCULATION OF STIFFNESS MATRIX  . . . . =        0.00000
     TIME FOR FACTORIZATION OF STIFFNESS MATRIX  . . . =        0.00000
     TIME FOR LOAD CASE SOLUTIONS  . . . . . . . . . . =        0.00000

      T O T A L   S O L U T I O N   T I M E  . . . . . =        0.00000
