Input phase ... 

 Patch Test                                                                      

 C O N T R O L   I N F O R M A T I O N

      NUMBER OF NODAL POINTS . . . . . . . . . . (NUMNP)  =    27
      NUMBER OF ELEMENT GROUPS . . . . . . . . . (NUMEG)  =     1
      NUMBER OF LOAD CASES . . . . . . . . . . . (NLCASE) =     1
      SOLUTION MODE  . . . . . . . . . . . . . . (MODEX)  =     1
         EQ.0, DATA CHECK
         EQ.1, EXECUTION


 N O D A L   P O I N T   D A T A

  NODE          BOUNDARY                         NODAL POINT
 NUMBER     CONDITION  CODES                     COORDINATES
               X    Y    Z               X            Y            Z
    1          0    0    0              0.000        0.000       10.000
    2          0    0    0              5.000        0.000       10.000
    3          0    0    0             10.000        0.000       10.000
    4          0    0    0              0.000        5.000       10.000
    5          0    0    0              5.000        5.000       10.000
    6          0    0    0             10.000        5.000       10.000
    7          0    0    0              0.000       10.000       10.000
    8          0    0    0              5.000       10.000       10.000
    9          0    0    0             10.000       10.000       10.000
   10          0    0    0              0.000        0.000        5.000
   11          0    0    0              5.000        0.000        5.000
   12          0    0    0             10.000        0.000        5.000
   13          0    0    0              0.000        5.000        5.000
   14          0    0    0              4.000        6.000        7.000
   15          0    0    0             10.000        5.000        5.000
   16          0    0    0              0.000       10.000        5.000
   17          0    0    0              5.000       10.000        5.000
   18          0    0    0             10.000       10.000        5.000
   19          1    1    1              0.000        0.000        0.000
   20          0    1    1              5.000        0.000        0.000
   21          0    1    1             10.000        0.000        0.000
   22          1    0    1              0.000        5.000        0.000
   23          0    0    1              5.000        5.000        0.000
   24          0    0    1             10.000        5.000        0.000
   25          1    0    1              0.000       10.000        0.000
   26          0    0    1              5.000       10.000        0.000
   27          0    0    1             10.000       10.000        0.000


 EQUATION NUMBERS

   NODE         DEGREES OF FREEDOM
  NUMBER
     N             X    Y    Z
     1             1    2    3
     2             4    5    6
     3             7    8    9
     4            10   11   12
     5            13   14   15
     6            16   17   18
     7            19   20   21
     8            22   23   24
     9            25   26   27
    10            28   29   30
    11            31   32   33
    12            34   35   36
    13            37   38   39
    14            40   41   42
    15            43   44   45
    16            46   47   48
    17            49   50   51
    18            52   53   54
    19             0    0    0
    20            55    0    0
    21            56    0    0
    22             0   57    0
    23            58   59    0
    24            60   61    0
    25             0   62    0
    26            63   64    0
    27            65   66    0


 L O A D   C A S E   D A T A

     LOAD CASE NUMBER . . . . . . . =     1
     NUMBER OF CONCENTRATED LOADS . =     9

    NODE       DIRECTION      LOAD
   NUMBER                   MAGNITUDE
      9            3        0.93750E+01
      8            3        0.28125E+02
      7            3        0.18750E+02
      6            3        0.28125E+02
      5            3        0.75000E+02
      4            3        0.46875E+02
      3            3        0.18750E+02
      2            3        0.46875E+02
      1            3        0.28125E+02


 E L E M E N T   G R O U P   D A T A


 E L E M E N T   D E F I N I T I O N

 ELEMENT TYPE  . . . . . . . . . . . . .( NPAR(1) ) . . =    4
     EQ.1, TRUSS ELEMENTS
     EQ.2, 2D TRIANGLE
     EQ.3, 2D QUADRANGLE
     EQ.4, 3D HEXAHEDRAL

 NUMBER OF ELEMENTS. . . . . . . . . . .( NPAR(2) ) . . =    8

 M A T E R I A L   D E F I N I T I O N

 NUMBER OF DIFFERENT SETS OF MATERIAL
 AND CROSS-SECTIONAL  CONSTANTS  . . . .( NPAR(3) ) . . =    1

  SET       YOUNG'S    POISSON
 NUMBER     MODULUS      RATIO
               E            v
    1     0.10000E+04    0.300000E+00


 E L E M E N T   I N F O R M A T I O N

 ELEMENT        |------------------------- NODES -------------------------|       MATERIAL
 NUMBER-N        1       2       3       4       5       6       7       8       SET NUMBER
      1           1       4       5       2      10      13      14      11        1
      2           4       7       8       5      13      16      17      14        1
      3           2       5       6       3      11      14      15      12        1
      4           5       8       9       6      14      17      18      15        1
      5          10      13      14      11      19      22      23      20        1
      6          13      16      17      14      22      25      26      23        1
      7          11      14      15      12      20      23      24      21        1
      8          14      17      18      15      23      26      27      24        1
Solution phase ... 


 TOTAL SYSTEM DATA

     NUMBER OF EQUATIONS . . . . . . . . . . . . . .(NEQ) =    66
     NUMBER OF MATRIX ELEMENTS . . . . . . . . . . .(NWK) =  1611
     MAXIMUM HALF BANDWIDTH  . . . . . . . . . . . .(MK ) =    42
     MEAN HALF BANDWIDTH . . . . . . . . . . . . . .(MM ) =    24


 LOAD CASE   1


 D I S P L A C E M E N T S

  NODE           X-DISPLACEMENT    Y-DISPLACEMENT    Z-DISPLACEMENT
   1              0.941341E-02      0.949856E-02      0.472511E-01
   2              0.279162E-02      0.903019E-02      0.387401E-01
   3             -0.217604E-02      0.697505E-02      0.299648E-01
   4              0.895848E-02      0.291924E-02      0.388269E-01
   5              0.361605E-02      0.376498E-02      0.300020E-01
   6             -0.118488E-03      0.288249E-02      0.212525E-01
   7              0.672532E-02     -0.214204E-02      0.299808E-01
   8              0.271942E-02      0.110145E-03      0.211690E-01
   9              0.352474E-03      0.560337E-03      0.128183E-01
  10              0.313648E-02      0.311122E-02      0.233383E-01
  11             -0.322341E-02      0.258343E-02      0.192772E-01
  12             -0.835650E-02      0.723762E-03      0.149335E-01
  13              0.228926E-02     -0.347936E-02      0.191948E-01
  14             -0.151019E-03     -0.180435E-02      0.209950E-01
  15             -0.657577E-02     -0.301304E-02      0.107274E-01
  16              0.317089E-03     -0.844506E-02      0.149344E-01
  17             -0.357175E-02     -0.657051E-02      0.108205E-01
  18             -0.609799E-02     -0.576712E-02      0.678334E-02
  19              0.000000E+00      0.000000E+00      0.000000E+00
  20             -0.544022E-02      0.000000E+00      0.000000E+00
  21             -0.100432E-01      0.000000E+00      0.000000E+00
  22              0.000000E+00     -0.515541E-02      0.000000E+00
  23             -0.529676E-02     -0.515610E-02      0.000000E+00
  24             -0.911024E-02     -0.516397E-02      0.000000E+00
  25              0.000000E+00     -0.974924E-02      0.000000E+00
  26             -0.521137E-02     -0.878431E-02      0.000000E+00
  27             -0.834380E-02     -0.807662E-02      0.000000E+00


 S T R E S S  C A L C U L A T I O N S  F O R  E L E M E N T  G R O U P   1

  ELEMENT             COORDINSTES                   Sigma_xx         Sigma_yy         Sigma_zz         Sigma_xy         Sigma_yz         Sigma_xz
  NUMBER        X          Y          Z
     1       3.4528       4.4339       7.0377    -0.349134E+00    -0.299186E+00     0.331467E+01    -0.752695E-01     0.157118E+00     0.226889E+00
             3.8119       4.0748       9.2063    -0.188426E+00    -0.164404E+00     0.340656E+01     0.103817E+00    -0.166074E+00    -0.100998E+00
             0.9252       4.0748       6.3195    -0.807902E-01    -0.120843E+00     0.392567E+01    -0.599222E-01     0.157070E+00     0.342466E-01
             1.0214       3.9786       9.0138     0.211015E-01    -0.669825E-01     0.396821E+01     0.279762E-01    -0.185473E+00    -0.217203E+00
             3.8119       1.1881       6.3195    -0.107289E+00    -0.467440E-01     0.390490E+01    -0.117155E+00     0.436553E-01     0.154988E+00
             3.9082       1.0918       9.0138    -0.801456E-01     0.272526E-01     0.393949E+01     0.534742E-02    -0.230950E+00    -0.208281E+00
             1.0214       1.0918       6.1271     0.122447E+00     0.111432E+00     0.450777E+01    -0.150897E+00     0.132344E+00     0.128344E+00
             1.0472       1.0661       8.9623     0.122092E+00     0.125318E+00     0.451200E+01    -0.831830E-01    -0.197556E+00    -0.216015E+00

     2       3.8119       9.0748       6.3195    -0.174620E+00    -0.707025E-01     0.234442E+01     0.144474E+00     0.100275E+00     0.241468E+00
             3.9082       8.9786       9.0138    -0.202221E+00    -0.140106E+00     0.232151E+01     0.124675E+00    -0.212708E+00    -0.204121E+00
             1.0214       8.9786       6.1271     0.510477E-01    -0.145027E-01     0.301606E+01    -0.802521E-02     0.183245E+00     0.204964E+00
             1.0472       8.9528       8.9623     0.353740E-01    -0.364147E-01     0.300488E+01    -0.147594E-02    -0.225625E+00    -0.211414E+00
             3.4528       6.5472       7.0377    -0.187090E+00     0.198225E+00     0.300372E+01    -0.395401E-04     0.329831E+00     0.327919E+00
             3.8119       6.1881       9.2063    -0.104988E+00     0.104863E+00     0.300035E+01    -0.405703E-02    -0.116394E+00    -0.118282E+00
             0.9252       6.1881       6.3195     0.879320E-01     0.200864E+00     0.366878E+01    -0.155318E+00     0.235366E+00     0.104829E+00
             1.0214       6.0918       9.0138     0.137432E+00     0.197689E+00     0.367693E+01    -0.130561E+00    -0.202947E+00    -0.209566E+00

     3       8.8119       4.0748       6.3195    -0.784788E-02    -0.129365E+00     0.241213E+01     0.176466E+00     0.182935E+00     0.112501E+00
             8.9082       3.9786       9.0138    -0.116556E+00    -0.192381E+00     0.235683E+01     0.124446E+00    -0.230110E+00    -0.218518E+00
             5.5661       4.4339       7.0377     0.154154E+00    -0.146305E+00     0.300376E+01     0.183650E-02     0.252806E+00     0.254330E+00
             5.9252       4.0748       9.2063     0.103738E+00    -0.104042E+00     0.300154E+01    -0.447593E-02    -0.120709E+00    -0.120734E+00
             8.9082       1.0918       6.1271    -0.120587E-01     0.409983E-01     0.301246E+01    -0.550227E-02     0.169892E+00     0.153007E+00
             8.9339       1.0661       8.9623    -0.284007E-01     0.262833E-01     0.300310E+01    -0.277887E-02    -0.228578E+00    -0.241580E+00
             5.9252       1.1881       6.3195     0.150081E+00     0.184414E-01     0.359897E+01    -0.181164E+00     0.113520E+00     0.178995E+00
             6.0214       1.0918       9.0138     0.188432E+00     0.113939E+00     0.364280E+01    -0.132268E+00    -0.215605E+00    -0.229500E+00

     4       8.9082       8.9786       6.1271    -0.139962E+00    -0.151010E+00     0.146757E+01     0.144517E+00     0.143825E+00     0.148013E+00
             8.9339       8.9528       8.9623    -0.124092E+00    -0.120408E+00     0.148133E+01     0.787001E-01    -0.203629E+00    -0.184525E+00
             5.9252       9.0748       6.3195     0.983019E-01     0.659478E-01     0.205867E+01     0.589227E-01     0.398973E-01     0.160094E+00
             6.0214       8.9786       9.0138     0.684046E-01    -0.205238E-01     0.202798E+01    -0.351426E-01    -0.213164E+00    -0.185534E+00
             8.8119       6.1881       6.3195     0.312717E-01     0.844830E-01     0.208089E+01     0.113036E+00     0.157830E+00     0.505243E-01
             8.9082       6.0918       9.0138    -0.265181E-01     0.828985E-01     0.205879E+01    -0.121046E-01    -0.208389E+00    -0.227056E+00
             5.5661       6.5472       7.0377     0.289734E+00     0.338289E+00     0.267985E+01     0.798483E-01     0.228895E+00     0.159778E+00
             5.9252       6.1881       9.2063     0.165080E+00     0.189986E+00     0.259458E+01    -0.112267E+00    -0.100407E+00    -0.167831E+00

     5       3.8119       4.0748       1.3195    -0.108696E+00    -0.855814E-01     0.322734E+01     0.677983E-01     0.290538E+00     0.270330E+00
             3.4528       4.4339       4.9245    -0.352755E-01    -0.122656E-01     0.327231E+01     0.213089E+00    -0.118226E+00    -0.139790E+00
             1.0214       3.9786       1.1271     0.156446E+00     0.138638E+00     0.387276E+01     0.338256E-01     0.202782E+00     0.217116E+00
             0.9252       4.0748       4.2063     0.184162E+00     0.421819E-01     0.384848E+01     0.142642E+00    -0.193840E+00    -0.273628E+00
             3.9082       1.0918       1.1271     0.111510E+00     0.177074E+00     0.388234E+01     0.289953E-01     0.244456E+00     0.241518E+00
             3.8119       1.1881       4.2063     0.331642E-01     0.170663E+00     0.386042E+01     0.502449E-01    -0.232397E+00    -0.150730E+00
             1.0472       1.0661       1.0755     0.369829E+00     0.396347E+00     0.452637E+01    -0.145866E-01     0.276188E+00     0.284977E+00
             1.0214       1.0918       4.0138     0.214259E+00     0.209172E+00     0.442363E+01    -0.646903E-01    -0.142109E+00    -0.126769E+00

     6       3.9082       8.9786       1.1271    -0.332620E+00    -0.194611E+00     0.238865E+01     0.101326E+00     0.184954E+00     0.143125E+00
             3.8119       9.0748       4.2063    -0.199999E+00    -0.308848E+00     0.239844E+01    -0.182699E-02    -0.259176E+00    -0.192369E+00
             1.0472       8.9528       1.0755    -0.125481E+00    -0.612780E-01     0.293646E+01     0.921719E-01     0.112631E+00     0.231976E-01
             1.0214       8.9786       4.0138     0.596419E-01    -0.697993E-01     0.298957E+01     0.116529E-01    -0.263425E+00    -0.340253E+00
             3.8119       6.1881       1.3195    -0.994686E-01     0.649537E-01     0.298915E+01     0.345123E-01     0.276562E+00     0.267121E+00
             3.4528       6.5472       4.9245     0.227928E-01    -0.241538E-01     0.299929E+01     0.114027E-01    -0.716009E-01    -0.759283E-01
             1.0214       6.0918       1.1271     0.113395E+00     0.194388E+00     0.354320E+01     0.267807E-01     0.169470E+00     0.164868E+00
             0.9252       6.1881       4.2063     0.307836E+00     0.191919E+00     0.359707E+01     0.246555E-01    -0.179428E+00    -0.273055E+00

     7       8.9082       3.9786       1.1271    -0.207295E+00    -0.327610E+00     0.237355E+01     0.998912E-01     0.198490E+00     0.219463E+00
             8.8119       4.0748       4.2063    -0.196236E+00    -0.168096E+00     0.242173E+01     0.741320E-01    -0.168602E+00    -0.218412E+00
             5.9252       4.0748       1.3195     0.502357E-01    -0.875142E-01     0.298789E+01     0.362870E-01     0.291913E+00     0.291413E+00
             5.5661       4.4339       4.9245     0.216681E-01    -0.227608E-01     0.299856E+01     0.115274E-01    -0.101653E+00    -0.996679E-01
             8.9339       1.0661       1.0755    -0.631262E-01    -0.112147E+00     0.293935E+01     0.881903E-01     0.788100E-01     0.164784E+00
             8.9082       1.0918       4.0138    -0.605982E-01     0.490860E-01     0.298837E+01     0.124378E-01    -0.298604E+00    -0.220588E+00
             6.0214       1.0918       1.1271     0.197445E+00     0.133405E+00     0.356117E+01     0.230149E-01     0.204252E+00     0.220485E+00
             5.9252       1.1881       4.2063     0.159569E+00     0.196734E+00     0.357140E+01    -0.512869E-01    -0.235756E+00    -0.152905E+00

     8       8.9339       8.9528       1.0755    -0.230183E+00    -0.208749E+00     0.158722E+01     0.156753E+00     0.207184E+00     0.195598E+00
             8.9082       8.9786       4.0138    -0.197062E+00    -0.203593E+00     0.159861E+01     0.870393E-01    -0.195264E+00    -0.214375E+00
             6.0214       8.9786       1.1271    -0.705260E-02    -0.704809E-01     0.219787E+01     0.617329E-01     0.193441E+00     0.182361E+00
             5.9252       9.0748       4.2063    -0.343546E-01    -0.187903E+00     0.215825E+01    -0.123320E+00    -0.294046E+00    -0.207705E+00
             8.9082       6.0918       1.1271    -0.941456E-01     0.120315E-01     0.218367E+01     0.772288E-01     0.217727E+00     0.218549E+00
             8.8119       6.1881       4.2063    -0.170040E+00    -0.255848E-01     0.214592E+01    -0.279942E-01    -0.164522E+00    -0.252876E+00
             5.9252       6.1881       1.3195     0.137048E+00     0.162448E+00     0.280459E+01    -0.749444E-02     0.265779E+00     0.283822E+00
             5.5661       6.5472       4.9245     0.137122E-01     0.360443E-01     0.272860E+01    -0.191964E+00    -0.140111E+00    -0.121866E+00




                S T R E S S   R E C O V E R Y   A T   N O D A L   P O I N T S
  Node   |-----------------------------------------Stress----------------------------------------|
 Number     Sigma_XX       Sigma_YY       Sigma_ZZ       Sigma_XY       Sigma_YZ       Sigma_ZX
     1    0.345240E+00   0.308682E+00   0.497424E+01  -0.401834E-01  -0.382064E+00  -0.453540E+00
     2    0.934667E-01   0.155209E+00   0.399798E+01  -0.753972E-01  -0.397810E+00  -0.369438E+00
     3   -0.978101E-01   0.926223E-01   0.300197E+01  -0.679829E-02  -0.475580E+00  -0.491034E+00
     4    0.182620E+00   0.100037E+00   0.404104E+01  -0.592510E-01  -0.327688E+00  -0.408323E+00
     5    0.322574E-01  -0.297190E-01   0.300055E+01  -0.141379E-01  -0.403093E+00  -0.403027E+00
     6   -0.156183E+00  -0.932243E-01   0.200134E+01   0.647015E-01  -0.361453E+00  -0.397570E+00
     7    0.149621E+00  -0.155195E+00   0.300489E+01  -0.348640E-02  -0.517828E+00  -0.497326E+00
     8   -0.100730E+00  -0.183057E+00   0.195863E+01   0.524704E-01  -0.408461E+00  -0.320491E+00
     9   -0.304395E+00  -0.339011E+00   0.101820E+01   0.284996E-01  -0.439030E+00  -0.368014E+00
    10    0.347808E+00   0.331050E+00   0.493064E+01  -0.128283E+00  -0.273373E-01  -0.458333E-01
    11    0.154614E+00   0.237353E+00   0.396611E+01  -0.898111E-01   0.219806E+00   0.257007E+00
    12   -0.790732E-01   0.296811E-01   0.298261E+01   0.255014E-01  -0.139199E+00  -0.101616E+00
    13    0.358775E+00   0.656769E-01   0.399528E+01  -0.111840E-01  -0.336721E+00  -0.585044E+00
    14   -0.138303E-02   0.122633E-02   0.299984E+01  -0.826471E-02  -0.117489E-01  -0.120863E-01
    15   -0.246461E+00  -0.167969E+00   0.202904E+01   0.195698E+00   0.197528E+00   0.222178E+00
    16    0.545539E-01  -0.101988E+00   0.298436E+01   0.252587E-01  -0.134985E+00  -0.172432E+00
    17   -0.551397E-01  -0.354355E+00   0.200702E+01  -0.767818E-01  -0.599670E+00  -0.301023E+00
    18   -0.287085E+00  -0.307129E+00   0.109881E+01   0.169649E+00  -0.815288E-01  -0.633124E-01
    19    0.459041E+00   0.461343E+00   0.494040E+01  -0.136986E+00   0.320352E+00   0.343531E+00
    20    0.184455E+00   0.199823E+00   0.393134E+01  -0.210915E-01   0.277252E+00   0.342393E+00
    21   -0.787853E-01  -0.998554E-01   0.293776E+01   0.913114E-01   0.115398E+00   0.208529E+00
    22    0.201212E+00   0.229239E+00   0.393314E+01   0.151275E-01   0.289098E+00   0.229613E+00
    23   -0.413067E-01   0.330437E-01   0.299705E+01   0.117347E+00   0.621847E+00   0.623317E+00
    24   -0.196000E+00  -0.185229E+00   0.206988E+01   0.177845E+00   0.276178E+00   0.274353E+00
    25   -0.137544E+00  -0.708528E-01   0.292811E+01   0.101881E+00   0.917845E-01  -0.193475E-01
    26   -0.238019E+00  -0.209644E+00   0.206250E+01   0.145991E+00   0.233392E+00   0.218650E+00
    27   -0.277718E+00  -0.285149E+00   0.118628E+01   0.288319E+00   0.248867E+00   0.225307E+00


 S O L U T I O N   T I M E   L O G   I N   S E C

     TIME FOR INPUT PHASE  . . . . . . . . . . . . . . =        0.00000
     TIME FOR CALCULATION OF STIFFNESS MATRIX  . . . . =        0.00000
     TIME FOR FACTORIZATION OF STIFFNESS MATRIX  . . . =        0.00000
     TIME FOR LOAD CASE SOLUTIONS  . . . . . . . . . . =        0.00400

      T O T A L   S O L U T I O N   T I M E  . . . . . =        0.00400
