Input phase ... 

 Cables to test STAP90 for 3T element                                            

 C O N T R O L   I N F O R M A T I O N

      NUMBER OF NODAL POINTS . . . . . . . . . . (NUMNP)  =     4
      NUMBER OF ELEMENT GROUPS . . . . . . . . . (NUMEG)  =     1
      NUMBER OF LOAD CASES . . . . . . . . . . . (NLCASE) =     1
      SOLUTION MODE  . . . . . . . . . . . . . . (MODEX)  =     1
         EQ.0, DATA CHECK
         EQ.1, EXECUTION


 N O D A L   P O I N T   D A T A

  NODE          BOUNDARY                         NODAL POINT
 NUMBER     CONDITION  CODES                     COORDINATES
               X    Y    Z               X            Y            Z
    1          1    1    1              0.000        0.000        0.000
    2          0    0    1              2.000        0.500        0.000
    3          1    1    1              0.000        1.000        0.000
    4          0    0    1              2.000        1.000        0.000


 EQUATION NUMBERS

   NODE         DEGREES OF FREEDOM
  NUMBER
     N             X    Y    Z
     1             0    0    0
     2             1    2    0
     3             0    0    0
     4             3    4    0


 L O A D   C A S E   D A T A

     LOAD CASE NUMBER . . . . . . . =     1
     NUMBER OF CONCENTRATED LOADS . =     2

    NODE       DIRECTION      LOAD
   NUMBER                   MAGNITUDE
      3            2       -0.20000E+02
      4            2       -0.20000E+02


 E L E M E N T   G R O U P   D A T A


 E L E M E N T   D E F I N I T I O N

 ELEMENT TYPE  . . . . . . . . . . . . .( NPAR(1) ) . . =   10
     EQ.8, 3T ELEMENTS

 NUMBER OF ELEMENTS. . . . . . . . . . .( NPAR(2) ) . . =    2

 M A T E R I A L   D E F I N I T I O N

 NUMBER OF DIFFERENT SETS OF MATERIAL
 AND CROSS-SECTIONAL  CONSTANTS  . . . .( NPAR(3) ) . . =    1

  SET       YOUNG'S        POISSON
 NUMBER     MODULUS         RATIO
               E              A
    1     0.30000E+08    0.300000E+00


 E L E M E N T   I N F O R M A T I O N

 ELEMENT    |-------- NODE ---------|      MATERIAL
 NUMBER-N      1        2        3       SET NUMBER
    1          3        1        2           1
    2          3        2        4           1
Solution phase ... 


 TOTAL SYSTEM DATA

     NUMBER OF EQUATIONS . . . . . . . . . . . . . .(NEQ) =     4
     NUMBER OF MATRIX ELEMENTS . . . . . . . . . . .(NWK) =    10
     MAXIMUM HALF BANDWIDTH  . . . . . . . . . . . .(MK ) =     4
     MEAN HALF BANDWIDTH . . . . . . . . . . . . . .(MM ) =     2


 LOAD CASE   1


 D I S P L A C E M E N T S

  NODE           X-DISPLACEMENT    Y-DISPLACEMENT    Z-DISPLACEMENT
   1              0.00000E+00      0.00000E+00      0.00000E+00
   2             -0.38710E-06     -0.66568E-05      0.00000E+00
   3              0.00000E+00      0.00000E+00      0.00000E+00
   4              0.12348E-05     -0.70407E-05      0.00000E+00


 S T R E S S  C A L C U L A T I O N S  F O R  E L E M E N T  G R O U P   1

  ELEMENT     X-CORRD         Y-CORRD                 STRESS_XX        STRESS_YY        STRESS_XY
     1     0.133333E+01     0.500000E+00           -0.638078E+01    -0.191423E+01    -0.384048E+02
     1     0.333333E+00     0.250000E+00           -0.638078E+01    -0.191423E+01    -0.384048E+02
     1     0.333333E+00     0.750000E+00           -0.638078E+01    -0.191423E+01    -0.384048E+02
     2     0.166667E+01     0.916667E+00            0.127616E+02    -0.192024E+02    -0.319039E+01
     2     0.166667E+01     0.666667E+00            0.127616E+02    -0.192024E+02    -0.319039E+01
     2     0.666667E+00     0.916667E+00            0.127616E+02    -0.192024E+02    -0.319039E+01



                S T R E S S   R E C O V E R Y   A T   N O D A L   P O I N T S
  Node   |-----------------------------------------Stress----------------------------------------|
 Number     Sigma_XX       Sigma_YY       Sigma_ZZ       Sigma_XY       Sigma_YZ       Sigma_ZX
     1   -0.638078E+01  -0.191423E+01          ---  -0.384048E+02            ---            ---
     2    0.583072E+01  -0.129429E+02          ---  -0.159404E+02            ---            ---
     3    0.451055E+01  -0.117506E+02          ---  -0.183690E+02            ---            ---
     4    0.127616E+02  -0.192024E+02          ---  -0.319039E+01            ---            ---


 S O L U T I O N   T I M E   L O G   I N   S E C

     TIME FOR INPUT PHASE  . . . . . . . . . . . . . . =        0.00000
     TIME FOR CALCULATION OF STIFFNESS MATRIX  . . . . =        0.00000
     TIME FOR FACTORIZATION OF STIFFNESS MATRIX  . . . =        0.00000
     TIME FOR LOAD CASE SOLUTIONS  . . . . . . . . . . =        0.00000

      T O T A L   S O L U T I O N   T I M E  . . . . . =        0.00000
