
 Bridge test                                                                     

 C O N T R O L   I N F O R M A T I O N

      NUMBER OF NODAL POINTS . . . . . . . . . . (NUMNP)  =    18
      NUMBER OF ELEMENT GROUPS . . . . . . . . . (NUMEG)  =     2
      NUMBER OF LOAD CASES . . . . . . . . . . . (NLCASE) =     1
      SOLUTION MODE  . . . . . . . . . . . . . . (MODEX)  =     1
         EQ.0, DATA CHECK
         EQ.1, EXECUTION


 N O D A L   P O I N T   D A T A

  NODE          BOUNDARY                         NODAL POINT
 NUMBER     CONDITION  CODES                     COORDINATES
               X    Y    Z   RX   RY   RZ               X            Y            Z
    1          1    1    1    1    1    1         0.000        0.000        0.000
    2          1    1    1    1    1    1         1.000        0.000        0.000
    3          1    1    1    1    1    1         1.000        1.000        0.000
    4          1    1    1    1    1    1         0.000        1.000        0.000
    5          0    0    0    1    1    1         0.000        0.000        1.000
    6          0    0    0    1    1    1         1.000        0.000        1.000
    7          0    0    0    0    0    1         1.000        1.000        1.000
    8          0    0    0    0    0    1         0.000        1.000        1.000
    9          1    1    1    1    1    1         0.000        3.000        0.000
   10          1    1    1    1    1    1         1.000        3.000        0.000
   11          1    1    1    1    1    1         1.000        4.000        0.000
   12          1    1    1    1    1    1         0.000        4.000        0.000
   13          0    0    0    0    0    1         0.000        3.000        1.000
   14          0    0    0    0    0    1         1.000        3.000        1.000
   15          0    0    0    1    1    1         1.000        4.000        1.000
   16          0    0    0    1    1    1         0.000        4.000        1.000
   17          0    0    0    0    0    1         1.000        2.000        1.000
   18          0    0    0    0    0    1         0.000        2.000        1.000


 EQUATION NUMBERS

   NODE         DEGREES OF FREEDOM
  NUMBER
     N             X    Y    Z   RX   RY   RZ
     1             0    0    0    0    0    0
     2             0    0    0    0    0    0
     3             0    0    0    0    0    0
     4             0    0    0    0    0    0
     5             1    2    3    0    0    0
     6             4    5    6    0    0    0
     7             7    8    9   10   11    0
     8            12   13   14   15   16    0
     9             0    0    0    0    0    0
    10             0    0    0    0    0    0
    11             0    0    0    0    0    0
    12             0    0    0    0    0    0
    13            17   18   19   20   21    0
    14            22   23   24   25   26    0
    15            27   28   29    0    0    0
    16            30   31   32    0    0    0
    17            33   34   35   36   37    0
    18            38   39   40   41   42    0


 L O A D   C A S E   D A T A

     LOAD CASE NUMBER . . . . . . . =     1
     NUMBER OF CONCENTRATED LOADS . =     2

    NODE       DIRECTION      LOAD
   NUMBER                   MAGNITUDE
     17            3        0.20000E+02
     18            3        0.20000E+02


 E L E M E N T   G R O U P   D A T A


 E L E M E N T   D E F I N I T I O N

 ELEMENT TYPE  . . . . . . . . . . . . .( NPAR(1) ) . . =    4
     EQ.1, TRUSS ELEMENTS
     EQ.2, 2D TRIANGLE
     EQ.3, 2D QUADRANGLE
     EQ.4, 3D HEXAHEDRAL

 NUMBER OF ELEMENTS. . . . . . . . . . .( NPAR(2) ) . . =    2

 M A T E R I A L   D E F I N I T I O N

 NUMBER OF DIFFERENT SETS OF MATERIAL
 AND CROSS-SECTIONAL  CONSTANTS  . . . .( NPAR(3) ) . . =    1

  SET       YOUNG'S    POISSON
 NUMBER     MODULUS      RATIO
               E            v
    1     0.10000E+11    0.250000E+00


 E L E M E N T   I N F O R M A T I O N

 ELEMENT        |------------------------- NODES -------------------------|       MATERIAL
 NUMBER-N        1       2       3       4       5       6       7       8       SET NUMBER
      1           8       7       6       5       4       3       2       1        1
      2           9      10      11      12      13      14      15      16        1

 E L E M E N T   D E F I N I T I O N

 ELEMENT TYPE  . . . . . . . . . . . . .( NPAR(1) ) . . =    7
     EQ.1, TRUSS ELEMENTS
     EQ.2, ELEMENTS CURRENTLY
     EQ.3, NOT AVAILABLE

 NUMBER OF ELEMENTS. . . . . . . . . . .( NPAR(2) ) . . =    2

 M A T E R I A L   D E F I N I T I O N

 NUMBER OF DIFFERENT SETS OF MATERIAL
 AND CROSS-SECTIONAL  CONSTANTS  . . . .( NPAR(3) ) . . =    1

  SET       YOUNG'S     CROSS-SECTIONAL
 NUMBER     MODULUS          AREA
    1     0.10000E+11    0.300000E+00


 E L E M E N T   I N F O R M A T I O N

 ELEMENT     NODE     NODE     NODE     NODE       MATERIAL
 NUMBER-N      I        J        K        L       SET NUMBER
    1          7       17       18        8           1
    2         17       14       13       18           1


 TOTAL SYSTEM DATA

     NUMBER OF EQUATIONS . . . . . . . . . . . . . .(NEQ) =    42
     NUMBER OF MATRIX ELEMENTS . . . . . . . . . . .(NWK) =       563
     MAXIMUM HALF BANDWIDTH  . . . . . . . . . . . .(MK ) =    36
     MEAN HALF BANDWIDTH . . . . . . . . . . . . . .(MM ) =    13


 LOAD CASE   1


 D I S P L A C E M E N T S

  NODE    X-DISPLACEMENT  Y-DISPLACEMENT  Z-DISPLACEMENT  X-ROTATION  Y-ROTATION  Z-ROTATION
     1       0.000000E+00  0.000000E+00  0.000000E+00  0.000000E+00  0.000000E+00  0.000000E+00
     2       0.000000E+00  0.000000E+00  0.000000E+00  0.000000E+00  0.000000E+00  0.000000E+00
     3       0.000000E+00  0.000000E+00  0.000000E+00  0.000000E+00  0.000000E+00  0.000000E+00
     4       0.000000E+00  0.000000E+00  0.000000E+00  0.000000E+00  0.000000E+00  0.000000E+00
     5      -0.311187E-10 -0.235320E-08 -0.947692E-09  0.000000E+00  0.000000E+00  0.000000E+00
     6       0.311187E-10 -0.235320E-08 -0.947692E-09  0.000000E+00  0.000000E+00  0.000000E+00
     7      -0.678322E-09 -0.275654E-08  0.463121E-08  0.103680E-06  0.691200E-06  0.000000E+00
     8       0.678322E-09 -0.275654E-08  0.463121E-08 -0.103680E-06  0.691200E-06  0.000000E+00
     9       0.000000E+00  0.000000E+00  0.000000E+00  0.000000E+00  0.000000E+00  0.000000E+00
    10       0.000000E+00  0.000000E+00  0.000000E+00  0.000000E+00  0.000000E+00  0.000000E+00
    11       0.000000E+00  0.000000E+00  0.000000E+00  0.000000E+00  0.000000E+00  0.000000E+00
    12       0.000000E+00  0.000000E+00  0.000000E+00  0.000000E+00  0.000000E+00  0.000000E+00
    13       0.678322E-09  0.275654E-08  0.463121E-08 -0.103680E-06 -0.691200E-06  0.000000E+00
    14      -0.678322E-09  0.275654E-08  0.463121E-08  0.103680E-06 -0.691200E-06  0.000000E+00
    15       0.311187E-10  0.235320E-08 -0.947692E-09  0.000000E+00  0.000000E+00  0.000000E+00
    16      -0.311187E-10  0.235320E-08 -0.947692E-09  0.000000E+00  0.000000E+00  0.000000E+00
    17      -0.313025E-09  0.332818E-22  0.139327E-05  0.103680E-06 -0.197114E-19  0.000000E+00
    18       0.313025E-09  0.144776E-22  0.139327E-05 -0.103680E-06  0.131506E-19  0.000000E+00


 S T R E S S  C A L C U L A T I O N S  F O R  E L E M E N T  G R O U P   1

  ELEMENT             COORDINSTES                   Sigma_xx         Sigma_yy         Sigma_zz         Sigma_xy         Sigma_yz         Sigma_xz
  NUMBER        X          Y          Z
     1       0.7887       0.2113       0.2113    -0.184204E-01    -0.298611E+00     0.223342E+01    -0.692462E+00    -0.100758E+02    -0.548731E+00
             0.7887       0.2113       0.7887    -0.259609E+01    -0.364178E+01     0.753214E+00    -0.258430E+01     0.156920E+02    -0.548731E+00
             0.7887       0.7887       0.2113     0.107881E+02     0.118928E+02     0.401927E+02    -0.692462E+00    -0.119388E+02    -0.244057E+01
             0.7887       0.7887       0.7887     0.253492E+01     0.665784E+01     0.368207E+02    -0.258430E+01     0.138291E+02    -0.244057E+01
             0.2113       0.2113       0.2113    -0.184204E-01    -0.298611E+00     0.223342E+01     0.692462E+00    -0.100758E+02     0.548731E+00
             0.2113       0.2113       0.7887    -0.259609E+01    -0.364178E+01     0.753214E+00     0.258430E+01     0.156920E+02     0.548731E+00
             0.2113       0.7887       0.2113     0.107881E+02     0.118928E+02     0.401927E+02     0.692462E+00    -0.119388E+02     0.244057E+01
             0.2113       0.7887       0.7887     0.253492E+01     0.665784E+01     0.368207E+02     0.258430E+01     0.138291E+02     0.244057E+01

     2       0.7887       3.7887       0.7887    -0.259609E+01    -0.364178E+01     0.753214E+00     0.258430E+01    -0.156920E+02    -0.548731E+00
             0.7887       3.7887       0.2113    -0.184204E-01    -0.298611E+00     0.223342E+01     0.692462E+00     0.100758E+02    -0.548731E+00
             0.7887       3.2113       0.7887     0.253492E+01     0.665784E+01     0.368207E+02     0.258430E+01    -0.138291E+02    -0.244057E+01
             0.7887       3.2113       0.2113     0.107881E+02     0.118928E+02     0.401927E+02     0.692462E+00     0.119388E+02    -0.244057E+01
             0.2113       3.7887       0.7887    -0.259609E+01    -0.364178E+01     0.753214E+00    -0.258430E+01    -0.156920E+02     0.548731E+00
             0.2113       3.7887       0.2113    -0.184204E-01    -0.298611E+00     0.223342E+01    -0.692462E+00     0.100758E+02     0.548731E+00
             0.2113       3.2113       0.7887     0.253492E+01     0.665784E+01     0.368207E+02    -0.258430E+01    -0.138291E+02     0.244057E+01
             0.2113       3.2113       0.2113     0.107881E+02     0.118928E+02     0.401927E+02    -0.692462E+00     0.119388E+02     0.244057E+01




                S T R E S S   R E C O V E R Y   A T   N O D A L   P O I N T S
  Node   |-----------------------------------------Stress-----------------------
 -----------------|
 Number     Sigma_XX       Sigma_YY       Sigma_ZZ       Sigma_XY       Sigma_YZ
        Sigma_ZX
     1    0.488838E+01   0.967703E+01   0.499534E+02   0.283776E+01   0.225789E+02   0.258881E+01
     2    0.488838E+01   0.967703E+01   0.499534E+02  -0.283776E+01   0.225789E+02  -0.258881E+01
     3   -0.891393E+01  -0.980080E+01  -0.141556E+02  -0.283776E+01   0.258056E+02  -0.258881E+01
     4   -0.891393E+01  -0.980080E+01  -0.141556E+02   0.283776E+01   0.258056E+02   0.258881E+01
     5    0.142682E+02   0.171059E+02   0.541556E+02   0.283776E+01  -0.220523E+02   0.258881E+01
     6    0.142682E+02   0.171059E+02   0.541556E+02  -0.283776E+01  -0.220523E+02  -0.258881E+01
     7    0.465874E+00  -0.237189E+01  -0.995342E+01  -0.283776E+01  -0.188256E+02  -0.258881E+01
     8    0.465874E+00  -0.237189E+01  -0.995342E+01   0.283776E+01  -0.188256E+02   0.258881E+01
     9    0.142682E+02   0.171059E+02   0.541556E+02  -0.283776E+01   0.220523E+02   0.258881E+01
    10    0.142682E+02   0.171059E+02   0.541556E+02   0.283776E+01   0.220523E+02  -0.258881E+01
    11    0.465874E+00  -0.237189E+01  -0.995342E+01   0.283776E+01   0.188256E+02  -0.258881E+01
    12    0.465874E+00  -0.237189E+01  -0.995342E+01  -0.283776E+01   0.188256E+02   0.258881E+01
    13    0.488838E+01   0.967703E+01   0.499534E+02  -0.283776E+01  -0.225789E+02   0.258881E+01
    14    0.488838E+01   0.967703E+01   0.499534E+02   0.283776E+01  -0.225789E+02  -0.258881E+01
    15   -0.891393E+01  -0.980080E+01  -0.141556E+02   0.283776E+01  -0.258056E+02  -0.258881E+01
    16   -0.891393E+01  -0.980080E+01  -0.141556E+02  -0.283776E+01  -0.258056E+02   0.258881E+01


 S T R E S S   I N F O R M A T I O N

           TAU_xx        TAU_yy        TAU_xy         TAU_yz       TAU_zx
ELEMENT  1
           0.16E+03     -0.11E+03     -0.39E+02     -0.73E+04     -0.61E+04
           0.78E+02     -0.37E+03     -0.24E+03     -0.75E+04     -0.61E+04
           0.72E+03      0.59E+02      0.53E+02     -0.73E+04     -0.58E+04
           0.64E+03     -0.20E+03     -0.14E+03     -0.75E+04     -0.58E+04
ELEMENT  2
          -0.45E+03     -0.19E+03      0.15E+03     -0.44E+03      0.31E+04
          -0.44E+03     -0.15E+03      0.54E+02     -0.38E+04      0.31E+04
          -0.19E+03     -0.11E+03      0.13E+03     -0.44E+03      0.64E+04
          -0.18E+03     -0.69E+02      0.39E+02     -0.38E+04      0.64E+04



                S T R E S S   R E C O V E R Y   A T   N O D A L   P O I N T S
  Node   |-----------------------------------------Stress-----------------------
 -----------------|
 Number     Sigma_XX       Sigma_YY       Sigma_ZZ       Sigma_XY       Sigma_YZ
        Sigma_ZX
     7    0.488583E+03  -0.145523E+03          ---  -0.887595E+02  -0.744251E+04  -0.589917E+04
     8    0.433105E+02  -0.206343E+03          ---  -0.105100E+03  -0.736915E+04  -0.609959E+04
    13   -0.525428E+03  -0.192033E+03          ---   0.102075E+03  -0.219096E+04   0.202513E+04
    14   -0.364584E+03  -0.140375E+03          ---   0.849067E+02  -0.247745E+04   0.405433E+04
    17    0.620980E+02  -0.135661E+03          ---   0.498194E+01  -0.484754E+04  -0.619493E+03
    18    0.391747E+03   0.361718E+01          ---   0.130607E+03  -0.421197E+04   0.611848E+02


 S O L U T I O N   T I M E   L O G   I N   S E C

     TIME FOR INPUT PHASE  . . . . . . . . . . . . . . =        0.01562
     TIME FOR CALCULATION OF STIFFNESS MATRIX  . . . . =        0.00000
     TIME FOR FACTORIZATION OF STIFFNESS MATRIX  . . . =        0.00000
     TIME FOR LOAD CASE SOLUTIONS  . . . . . . . . . . =        0.00000

      T O T A L   S O L U T I O N   T I M E  . . . . . =        0.01562
