
 Transition Element                                                              

 C O N T R O L   I N F O R M A T I O N

      NUMBER OF NODAL POINTS . . . . . . . . . . (NUMNP)  =          5
      NUMBER OF ELEMENT GROUPS . . . . . . . . . (NUMEG)  =          1
      NUMBER OF LOAD CASES . . . . . . . . . . . (NLCASE) =          1
      SOLUTION MODE  . . . . . . . . . . . . . . (MODEX)  =          1
         EQ.0, DATA CHECK
         EQ.1, EXECUTION


 N O D A L   P O I N T   D A T A

  NODE          BOUNDARY                         NODAL POINT
 NUMBER     CONDITION  CODES                     COORDINATES
               X    Y    Z   RX   RY   RZ               X            Y            Z
         1               1         1         1         1         1         1         0.000        0.000        0.000
         2               0         1         1         1         1         1         1.000        0.000        0.000
         3               0         0         1         1         1         1         1.000        1.000        0.000
         4               0         0         1         1         1         1         0.000        1.000        0.000
         5               0         0         1         1         1         1         1.000        0.500        0.000


 EQUATION NUMBERS

   NODE         DEGREES OF FREEDOM
  NUMBER
     N             X    Y    Z   RX   RY   RZ
          1                  0         0         0         0         0         0
          2                  1         0         0         0         0         0
          3                  2         3         0         0         0         0
          4                  4         5         0         0         0         0
          5                  6         7         0         0         0         0


 L O A D   C A S E   D A T A

     LOAD CASE NUMBER . . . . . . . =          1
     NUMBER OF CONCENTRATED LOADS . =          2

    NODE       DIRECTION      LOAD
   NUMBER                   MAGNITUDE
          3                  2       -0.10000E+02
          4                  2       -0.10000E+02


 E L E M E N T   G R O U P   D A T A


 E L E M E N T   D E F I N I T I O N

 ELEMENT TYPE  . . . . . . . . . . . . .( NPAR(1) ) . . =        16
     EQ.16, Transition ELEMENTS
 NUMBER OF ELEMENTS. . . . . . . . . . .( NPAR(2) ) . . =         1

 M A T E R I A L   D E F I N I T I O N

 NUMBER OF DIFFERENT SETS OF MATERIAL
 AND CROSS-SECTIONAL  CONSTANTS  . . . .( NPAR(3) ) . . =         1

  SET       YOUNG'S        POISSON      DENSITY
 NUMBER     MODULUS         RATIO
               E              v              ¦Ñ
         1     0.30000E+08    0.300000E+00


 E L E M E N T   I N F O R M A T I O N

 ELEMENT    |------------- NODE -------------|    MATERIAL
 NUMBER-N      1        2        3        4      SET NUMBER
         1               1             2             3             4             5                1


 TOTAL SYSTEM DATA

     NUMBER OF EQUATIONS . . . . . . . . . . . . . .(NEQ) =          7
     NUMBER OF MATRIX ELEMENTS . . . . . . . . . . .(NWK) =         28
     MAXIMUM HALF BANDWIDTH  . . . . . . . . . . . .(MK ) =          7
     MEAN HALF BANDWIDTH . . . . . . . . . . . . . .(MM ) =          4


 LOAD CASE   1


 D I S P L A C E M E N T S

  NODE    X-DISPLACEMENT  Y-DISPLACEMENT  Z-DISPLACEMENT  X-ROTATION  Y-ROTATION  Z-ROTATION
          1       0.000000E+00  0.000000E+00  0.000000E+00  0.000000E+00  0.000000E+00  0.000000E+00
          2       0.200000E-06  0.000000E+00  0.000000E+00  0.000000E+00  0.000000E+00  0.000000E+00
          3       0.200000E-06 -0.666667E-06  0.000000E+00  0.000000E+00  0.000000E+00  0.000000E+00
          4       0.635275E-21 -0.666667E-06  0.000000E+00  0.000000E+00  0.000000E+00  0.000000E+00
          5       0.200000E-06 -0.333333E-06  0.000000E+00  0.000000E+00  0.000000E+00  0.000000E+00


 S T R E S S  C A L C U L A T I O N S  F O R  E L E M E N T  G R O U P   1

  ELEMENT     X-CORRD         Y-CORRD                 STRESS_XX        STRESS_YY        STRESS_XY
          1     0.694318E-01     0.694318E-01            0.710543E-14    -0.200000E+02     0.626112E-14
          1     0.694318E-01     0.330009E+00            0.355271E-14    -0.200000E+02     0.427589E-14
          1     0.694318E-01     0.669991E+00            0.266454E-14    -0.200000E+02     0.122168E-14
          1     0.694318E-01     0.930568E+00            0.266454E-14    -0.200000E+02     0.122168E-14
          1     0.330009E+00     0.694318E-01            0.444089E-14    -0.200000E+02     0.427589E-14
          1     0.330009E+00     0.330009E+00            0.355271E-14    -0.200000E+02     0.305421E-14
          1     0.330009E+00     0.669991E+00           -0.888178E-15    -0.200000E+02     0.122168E-14
          1     0.330009E+00     0.930568E+00            0.000000E+00    -0.200000E+02     0.610841E-15
          1     0.669991E+00     0.694318E-01            0.266454E-14    -0.200000E+02     0.244336E-14
          1     0.669991E+00     0.330009E+00           -0.888178E-15    -0.200000E+02     0.244336E-14
          1     0.669991E+00     0.669991E+00           -0.355271E-14    -0.200000E+02     0.000000E+00
          1     0.669991E+00     0.930568E+00           -0.888178E-15    -0.200000E+02     0.122168E-14
          1     0.930568E+00     0.694318E-01            0.177636E-14    -0.200000E+02     0.000000E+00
          1     0.930568E+00     0.330009E+00           -0.266454E-14    -0.200000E+02     0.122168E-14
          1     0.930568E+00     0.669991E+00           -0.532907E-14    -0.200000E+02     0.610841E-15
          1     0.930568E+00     0.930568E+00           -0.355271E-14    -0.200000E+02     0.122168E-14
