
 Transition Element + 9Q                                                         

 C O N T R O L   I N F O R M A T I O N

      NUMBER OF NODAL POINTS . . . . . . . . . . (NUMNP)  =         11
      NUMBER OF ELEMENT GROUPS . . . . . . . . . (NUMEG)  =          2
      NUMBER OF LOAD CASES . . . . . . . . . . . (NLCASE) =          1
      SOLUTION MODE  . . . . . . . . . . . . . . (MODEX)  =          1
         EQ.0, DATA CHECK
         EQ.1, EXECUTION


 N O D A L   P O I N T   D A T A

  NODE          BOUNDARY                         NODAL POINT
 NUMBER     CONDITION  CODES                     COORDINATES
               X    Y    Z   RX   RY   RZ               X            Y            Z
         1               1         1         1         1         1         1         0.000        0.000        0.000
         2               0         0         1         1         1         1         2.000        0.000        0.000
         3               0         0         1         1         1         1         4.000        0.000        0.000
         4               0         0         1         1         1         1         4.000        2.000        0.000
         5               0         0         1         1         1         1         2.000        2.000        0.000
         6               1         0         1         1         1         1         0.000        2.000        0.000
         7               0         0         1         1         1         1         3.000        0.000        0.000
         8               0         0         1         1         1         1         4.000        1.000        0.000
         9               0         0         1         1         1         1         3.000        2.000        0.000
        10               0         0         1         1         1         1         2.000        1.000        0.000
        11               0         0         1         1         1         1         3.000        1.000        0.000


 EQUATION NUMBERS

   NODE         DEGREES OF FREEDOM
  NUMBER
     N             X    Y    Z   RX   RY   RZ
          1                  0         0         0         0         0         0
          2                  1         2         0         0         0         0
          3                  3         4         0         0         0         0
          4                  5         6         0         0         0         0
          5                  7         8         0         0         0         0
          6                  0         9         0         0         0         0
          7                 10        11         0         0         0         0
          8                 12        13         0         0         0         0
          9                 14        15         0         0         0         0
         10                 16        17         0         0         0         0
         11                 18        19         0         0         0         0


 L O A D   C A S E   D A T A

     LOAD CASE NUMBER . . . . . . . =          1
     NUMBER OF CONCENTRATED LOADS . =          3

    NODE       DIRECTION      LOAD
   NUMBER                   MAGNITUDE
          3                  1        0.10000E+02
          4                  1        0.10000E+02
          8                  1        0.40000E+02


 E L E M E N T   G R O U P   D A T A


 E L E M E N T   D E F I N I T I O N

 ELEMENT TYPE  . . . . . . . . . . . . .( NPAR(1) ) . . =        16
     EQ.16, Transition ELEMENTS
 NUMBER OF ELEMENTS. . . . . . . . . . .( NPAR(2) ) . . =         1

 M A T E R I A L   D E F I N I T I O N

 NUMBER OF DIFFERENT SETS OF MATERIAL
 AND CROSS-SECTIONAL  CONSTANTS  . . . .( NPAR(3) ) . . =         1

  SET       YOUNG'S        POISSON      DENSITY
 NUMBER     MODULUS         RATIO
               E              v              ¦Ñ
         1     0.30000E+08    0.300000E+00


 E L E M E N T   I N F O R M A T I O N

 ELEMENT    |------------- NODE -------------|    MATERIAL
 NUMBER-N      1        2        3        4      SET NUMBER
         1               1             2             5             6            10                1

 E L E M E N T   D E F I N I T I O N

 ELEMENT TYPE  . . . . . . . . . . . . .( NPAR(1) ) . . =         3
     EQ.3, 9Q ELEMENTS

 NUMBER OF ELEMENTS. . . . . . . . . . .( NPAR(2) ) . . =         1

 M A T E R I A L   D E F I N I T I O N

 NUMBER OF DIFFERENT SETS OF MATERIAL
 AND CROSS-SECTIONAL  CONSTANTS  . . . .( NPAR(3) ) . . =         1

  SET       YOUNG'S        POISSON
 NUMBER     MODULUS         RATIO
               E              A
         1     0.30000E+08    0.300000E+00


 E L E M E N T   I N F O R M A T I O N

 ELEMENT     NODE     NODE       MATERIAL
 NUMBER-N      I        J       SET NUMBER
         1               2             3             4             5             7             8             9            10            11                1


 TOTAL SYSTEM DATA

     NUMBER OF EQUATIONS . . . . . . . . . . . . . .(NEQ) =         19
     NUMBER OF MATRIX ELEMENTS . . . . . . . . . . .(NWK) =        190
     MAXIMUM HALF BANDWIDTH  . . . . . . . . . . . .(MK ) =         19
     MEAN HALF BANDWIDTH . . . . . . . . . . . . . .(MM ) =         10


 LOAD CASE   1


 D I S P L A C E M E N T S

  NODE    X-DISPLACEMENT  Y-DISPLACEMENT  Z-DISPLACEMENT  X-ROTATION  Y-ROTATION  Z-ROTATION
          1       0.000000E+00  0.000000E+00  0.000000E+00  0.000000E+00  0.000000E+00  0.000000E+00
          2       0.200000E-05 -0.190757E-14  0.000000E+00  0.000000E+00  0.000000E+00  0.000000E+00
          3       0.400000E-05 -0.218267E-13  0.000000E+00  0.000000E+00  0.000000E+00  0.000000E+00
          4       0.400000E-05 -0.600000E-06  0.000000E+00  0.000000E+00  0.000000E+00  0.000000E+00
          5       0.200000E-05 -0.600000E-06  0.000000E+00  0.000000E+00  0.000000E+00  0.000000E+00
          6       0.000000E+00 -0.600000E-06  0.000000E+00  0.000000E+00  0.000000E+00  0.000000E+00
          7       0.300000E-05  0.613268E-14  0.000000E+00  0.000000E+00  0.000000E+00  0.000000E+00
          8       0.400000E-05 -0.300000E-06  0.000000E+00  0.000000E+00  0.000000E+00  0.000000E+00
          9       0.300000E-05 -0.600000E-06  0.000000E+00  0.000000E+00  0.000000E+00  0.000000E+00
         10       0.200000E-05 -0.300000E-06  0.000000E+00  0.000000E+00  0.000000E+00  0.000000E+00
         11       0.300000E-05 -0.300000E-06  0.000000E+00  0.000000E+00  0.000000E+00  0.000000E+00


 S T R E S S  C A L C U L A T I O N S  F O R  E L E M E N T  G R O U P   1

  ELEMENT     X-CORRD         Y-CORRD                 STRESS_XX        STRESS_YY        STRESS_XY
          1     0.694318E-01     0.694318E-01            0.600000E+02    -0.193019E-07    -0.204958E-07
          1     0.694318E-01     0.330009E+00            0.600000E+02    -0.227606E-07    -0.809190E-08
          1     0.694318E-01     0.669991E+00            0.600000E+02    -0.227605E-07     0.809165E-08
          1     0.694318E-01     0.930568E+00            0.600000E+02    -0.193017E-07     0.204955E-07
          1     0.330009E+00     0.694318E-01            0.600000E+02     0.134719E-07    -0.262818E-07
          1     0.330009E+00     0.330009E+00            0.600000E+02     0.100131E-07    -0.103762E-07
          1     0.330009E+00     0.669991E+00            0.600000E+02     0.100132E-07     0.103761E-07
          1     0.330009E+00     0.930568E+00            0.600000E+02     0.134720E-07     0.262817E-07
          1     0.669991E+00     0.694318E-01            0.600000E+02     0.562324E-07    -0.338310E-07
          1     0.669991E+00     0.330009E+00            0.600000E+02     0.527737E-07    -0.133566E-07
          1     0.669991E+00     0.669991E+00            0.600000E+02     0.527737E-07     0.133567E-07
          1     0.669991E+00     0.930568E+00            0.600000E+02     0.562325E-07     0.338310E-07
          1     0.930568E+00     0.694318E-01            0.600000E+02     0.890062E-07    -0.396170E-07
          1     0.930568E+00     0.330009E+00            0.600000E+02     0.855474E-07    -0.156409E-07
          1     0.930568E+00     0.669991E+00            0.600000E+02     0.855474E-07     0.156411E-07
          1     0.930568E+00     0.930568E+00            0.600000E+02     0.890062E-07     0.396171E-07


 S T R E S S  C A L C U L A T I O N S  F O R  E L E M E N T  G R O U P   2

  ELEMENT     X-CORRD         Y-CORRD                 STRESS_XX        STRESS_YY        STRESS_XY
          1     0.213886E+01     0.138864E+00            0.300000E+02    -0.769812E-08     0.173728E-06
          1     0.213886E+01     0.660019E+00            0.300000E+02    -0.439731E-07     0.685885E-07
          1     0.213886E+01     0.133998E+01            0.300000E+02    -0.439731E-07    -0.685885E-07
          1     0.213886E+01     0.186114E+01            0.300000E+02    -0.769812E-08    -0.173728E-06
          1     0.266002E+01     0.138864E+00            0.300000E+02    -0.312040E-06     0.402730E-07
          1     0.266002E+01     0.660019E+00            0.300000E+02    -0.212447E-06     0.159000E-07
          1     0.266002E+01     0.133998E+01            0.300000E+02    -0.212447E-06    -0.159000E-07
          1     0.266002E+01     0.186114E+01            0.300000E+02    -0.312040E-06    -0.402730E-07
          1     0.333998E+01     0.138864E+00            0.300000E+02    -0.224483E-06     0.207887E-06
          1     0.333998E+01     0.660019E+00            0.300000E+02     0.523814E-07     0.820748E-07
          1     0.333998E+01     0.133998E+01            0.300000E+02     0.523814E-07    -0.820748E-07
          1     0.333998E+01     0.186114E+01            0.300000E+02    -0.224483E-06    -0.207887E-06
          1     0.386114E+01     0.138864E+00            0.300000E+02     0.214075E-06     0.598276E-06
          1     0.386114E+01     0.660019E+00            0.300000E+02     0.626808E-06     0.236202E-06
          1     0.386114E+01     0.133998E+01            0.300000E+02     0.626808E-06    -0.236202E-06
          1     0.386114E+01     0.186114E+01            0.300000E+02     0.214075E-06    -0.598276E-06
