
 SHELL                                                                           

 C O N T R O L   I N F O R M A T I O N

      NUMBER OF NODAL POINTS . . . . . . . . . . (NUMNP)  =     6
      NUMBER OF ELEMENT GROUPS . . . . . . . . . (NUMEG)  =     1
      NUMBER OF LOAD CASES . . . . . . . . . . . (NLCASE) =     1
      SOLUTION MODE  . . . . . . . . . . . . . . (MODEX)  =     1
         EQ.0, DATA CHECK
         EQ.1, EXECUTION


 N O D A L   P O I N T   D A T A

  NODE          BOUNDARY                         NODAL POINT
 NUMBER     CONDITION  CODES                     COORDINATES
               X    Y    Z   RX   RY   RZ               X            Y            Z
    1          1    1    1    1    1    1     -1000.000        0.000        0.000
    2          1    1    1    1    1    1         0.000        0.000        0.000
    3          0    0    0    0    0    1         0.000     1000.000        0.000
    4          0    0    0    0    0    1     -1000.000     1000.000        0.000
    5          1    1    1    1    1    1      1000.000        0.000        0.000
    6          0    0    0    0    0    1      1000.000     1000.000        0.000


 EQUATION NUMBERS

   NODE         DEGREES OF FREEDOM
  NUMBER
     N             X    Y    Z   RX   RY   RZ
     1             0    0    0    0    0    0
     2             0    0    0    0    0    0
     3             1    2    3    4    5    0
     4             6    7    8    9   10    0
     5             0    0    0    0    0    0
     6            11   12   13   14   15    0


 EQUATION NUMBERS

   NODE         DEGREES OF FREEDOM
  NUMBER
     N             X    Y    Z   RX   RY   RZ
     1             0    0    0    0    0    0
     2             0    0    0    0    0    0
     3             1    2    3    4    5    0
     4             6    7    8    9   10    0
     5             0    0    0    0    0    0
     6            11   12   13   14   15    0


 L O A D   C A S E   D A T A

     LOAD CASE NUMBER . . . . . . . =     1
     NUMBER OF CONCENTRATED LOADS . =     6

    NODE       DIRECTION      LOAD
   NUMBER                   MAGNITUDE
      3            3        0.10000E+03
      4            3        0.10000E+03
      6            3        0.10000E+03
      3            2        0.10000E+03
      4            2        0.10000E+03
      6            2        0.10000E+03


 E L E M E N T   G R O U P   D A T A


 E L E M E N T   D E F I N I T I O N

 ELEMENT TYPE  . . . . . . . . . . . . .( NPAR(1) ) . . =    7
     EQ.1, TRUSS ELEMENTS
     EQ.2, ELEMENTS CURRENTLY
     EQ.3, NOT AVAILABLE

 NUMBER OF ELEMENTS. . . . . . . . . . .( NPAR(2) ) . . =    2

 M A T E R I A L   D E F I N I T I O N

 NUMBER OF DIFFERENT SETS OF MATERIAL
 AND CROSS-SECTIONAL  CONSTANTS  . . . .( NPAR(3) ) . . =    1

  SET       YOUNG'S     CROSS-SECTIONAL
 NUMBER     MODULUS          AREA
    1     0.10000E+11    0.300000E+00


 E L E M E N T   I N F O R M A T I O N

 ELEMENT     NODE     NODE     NODE     NODE       MATERIAL
 NUMBER-N      I        J        K        L       SET NUMBER
    1          1        2        3        4           1
    2          2        5        6        3           1


 TOTAL SYSTEM DATA

     NUMBER OF EQUATIONS . . . . . . . . . . . . . .(NEQ) =    15
     NUMBER OF MATRIX ELEMENTS . . . . . . . . . . .(NWK) =         120
     MAXIMUM HALF BANDWIDTH  . . . . . . . . . . . .(MK ) =    15
     MEAN HALF BANDWIDTH . . . . . . . . . . . . . .(MM ) =     8


 LOAD CASE   1


 D I S P L A C E M E N T S

  NODE    X-DISPLACEMENT  Y-DISPLACEMENT  Z-DISPLACEMENT  X-ROTATION  Y-ROTATION  Z-ROTATION
     1       0.000000E+00  0.000000E+00  0.000000E+00  0.000000E+00  0.000000E+00  0.000000E+00
     2       0.000000E+00  0.000000E+00  0.000000E+00  0.000000E+00  0.000000E+00  0.000000E+00
     3      -0.165436E-23  0.742503E-08  0.149760E-06  0.224640E-09  0.775482E-25  0.000000E+00
     4       0.781774E-08  0.222203E-07  0.224639E-06  0.336958E-09  0.112319E-09  0.000000E+00
     5       0.000000E+00  0.000000E+00  0.000000E+00  0.000000E+00  0.000000E+00  0.000000E+00
     6      -0.781774E-08  0.222203E-07  0.224639E-06  0.336958E-09 -0.112319E-09  0.000000E+00


 S T R E S S   I N F O R M A T I O N

           TAU_xx        TAU_yy        TAU_xy         TAU_yz       TAU_zx
ELEMENT  1
           0.43E-01      0.20E-01     -0.69E-02     -0.30E-15     -0.58E+03
           0.13E-01      0.11E-01     -0.46E-02     -0.30E-15     -0.58E+03
           0.45E-01      0.27E-01     -0.17E-01     -0.30E-15     -0.58E+03
           0.15E-01      0.18E-01     -0.15E-01     -0.30E-15     -0.58E+03
ELEMENT  2
           0.67E-01      0.33E-01     -0.49E-02      0.43E+00     -0.86E+03
           0.21E-01      0.20E-01     -0.72E-02      0.43E+00     -0.86E+03
           0.65E-01      0.27E-01     -0.21E-01      0.43E+00     -0.86E+03
           0.19E-01      0.13E-01     -0.23E-01      0.43E+00     -0.86E+03



                S T R E S S   R E C O V E R Y   A T   N O D A L   P O I N T S
  Node   |-----------------------------------------Stress-----------------------
 -----------------|
 Number     Sigma_XX       Sigma_YY       Sigma_ZZ       Sigma_XY       Sigma_YZ
        Sigma_ZX
     1    0.267950E-03   0.610365E-02          ---  -0.137882E-02  -0.298262E-15  -0.575999E+03
     2    0.316957E-01   0.197212E-01          ---  -0.110029E-01   0.195610E+00  -0.706406E+03
     3    0.316957E-01   0.197212E-01          ---  -0.110029E-01   0.195610E+00  -0.706406E+03
     4    0.461103E-01   0.248978E-01          ---  -0.135793E-01  -0.298262E-15  -0.575999E+03
     5    0.117889E+00   0.489756E-01          ---  -0.145808E-02   0.431996E+00  -0.863997E+03
     6    0.217828E-01   0.161655E-01          ---  -0.169862E-01   0.431996E+00  -0.863997E+03


 S O L U T I O N   T I M E   L O G   I N   S E C

     TIME FOR INPUT PHASE  . . . . . . . . . . . . . . =        0.00000
     TIME FOR CALCULATION OF STIFFNESS MATRIX  . . . . =        0.00000
     TIME FOR FACTORIZATION OF STIFFNESS MATRIX  . . . =        0.00000
     TIME FOR LOAD CASE SOLUTIONS  . . . . . . . . . . =        0.00000

      T O T A L   S O L U T I O N   T I M E  . . . . . =        0.00000
