
 Cables to test STAP90 for element 9Q                                            

 C O N T R O L   I N F O R M A T I O N

      NUMBER OF NODAL POINTS . . . . . . . . . . (NUMNP)  =          9
      NUMBER OF ELEMENT GROUPS . . . . . . . . . (NUMEG)  =          1
      NUMBER OF LOAD CASES . . . . . . . . . . . (NLCASE) =          1
      SOLUTION MODE  . . . . . . . . . . . . . . (MODEX)  =          1
         EQ.0, DATA CHECK
         EQ.1, EXECUTION


 N O D A L   P O I N T   D A T A

  NODE          BOUNDARY                         NODAL POINT
 NUMBER     CONDITION  CODES                     COORDINATES
               X    Y    Z   RX   RY   RZ               X            Y            Z
         1               1         1         1         1         1         1        -1.000       -1.000        0.000
         2               0         1         1         1         1         1         1.000       -1.000        0.000
         3               0         0         1         1         1         1         1.000        1.000        0.000
         4               0         0         1         1         1         1        -1.000        1.000        0.000
         5               0         1         1         1         1         1         0.000       -1.000        0.000
         6               0         0         1         1         1         1         1.000        0.000        0.000
         7               0         0         1         1         1         1         0.000        1.000        0.000
         8               0         0         1         1         1         1        -1.000        0.000        0.000
         9               0         0         1         1         1         1         0.000        0.000        0.000


 EQUATION NUMBERS

   NODE         DEGREES OF FREEDOM
  NUMBER
     N             X    Y    Z   RX   RY   RZ
          1                  0         0         0         0         0         0
          2                  1         0         0         0         0         0
          3                  2         3         0         0         0         0
          4                  4         5         0         0         0         0
          5                  6         0         0         0         0         0
          6                  7         8         0         0         0         0
          7                  9        10         0         0         0         0
          8                 11        12         0         0         0         0
          9                 13        14         0         0         0         0


 L O A D   C A S E   D A T A

     LOAD CASE NUMBER . . . . . . . =          1
     NUMBER OF CONCENTRATED LOADS . =          3

    NODE       DIRECTION      LOAD
   NUMBER                   MAGNITUDE
          3                  2       -0.10000E+02
          4                  2       -0.10000E+02
          7                  2       -0.40000E+02


 E L E M E N T   G R O U P   D A T A


 E L E M E N T   D E F I N I T I O N

 ELEMENT TYPE  . . . . . . . . . . . . .( NPAR(1) ) . . =         3
     EQ.3, 9Q ELEMENTS

 NUMBER OF ELEMENTS. . . . . . . . . . .( NPAR(2) ) . . =         1

 M A T E R I A L   D E F I N I T I O N

 NUMBER OF DIFFERENT SETS OF MATERIAL
 AND CROSS-SECTIONAL  CONSTANTS  . . . .( NPAR(3) ) . . =         1

  SET       YOUNG'S        POISSON
 NUMBER     MODULUS         RATIO
               E              A
         1     0.30000E+08    0.300000E+00


 E L E M E N T   I N F O R M A T I O N

 ELEMENT     NODE     NODE       MATERIAL
 NUMBER-N      I        J       SET NUMBER
         1               1             2             3             4             5             6             7             8             9                1


 TOTAL SYSTEM DATA

     NUMBER OF EQUATIONS . . . . . . . . . . . . . .(NEQ) =         14
     NUMBER OF MATRIX ELEMENTS . . . . . . . . . . .(NWK) =        105
     MAXIMUM HALF BANDWIDTH  . . . . . . . . . . . .(MK ) =         14
     MEAN HALF BANDWIDTH . . . . . . . . . . . . . .(MM ) =          7


 LOAD CASE   1


 D I S P L A C E M E N T S

  NODE    X-DISPLACEMENT  Y-DISPLACEMENT  Z-DISPLACEMENT  X-ROTATION  Y-ROTATION  Z-ROTATION
          1       0.000000E+00  0.000000E+00  0.000000E+00  0.000000E+00  0.000000E+00  0.000000E+00
          2       0.600000E-06  0.000000E+00  0.000000E+00  0.000000E+00  0.000000E+00  0.000000E+00
          3       0.600000E-06 -0.200000E-05  0.000000E+00  0.000000E+00  0.000000E+00  0.000000E+00
          4       0.173949E-13 -0.200000E-05  0.000000E+00  0.000000E+00  0.000000E+00  0.000000E+00
          5       0.300000E-06  0.000000E+00  0.000000E+00  0.000000E+00  0.000000E+00  0.000000E+00
          6       0.600000E-06 -0.100000E-05  0.000000E+00  0.000000E+00  0.000000E+00  0.000000E+00
          7       0.300000E-06 -0.200000E-05  0.000000E+00  0.000000E+00  0.000000E+00  0.000000E+00
          8      -0.105922E-13 -0.100000E-05  0.000000E+00  0.000000E+00  0.000000E+00  0.000000E+00
          9       0.300000E-06 -0.100000E-05  0.000000E+00  0.000000E+00  0.000000E+00  0.000000E+00


 S T R E S S  C A L C U L A T I O N S  F O R  E L E M E N T  G R O U P   1

  ELEMENT     X-CORRD         Y-CORRD                 STRESS_XX        STRESS_YY        STRESS_XY
          1    -0.861136E+00    -0.861136E+00           -0.653980E-07    -0.300000E+02    -0.214415E-06
          1    -0.861136E+00    -0.339981E+00            0.289206E-06    -0.300000E+02    -0.550864E-07
          1    -0.861136E+00     0.339981E+00            0.232497E-06    -0.300000E+02    -0.204030E-06
          1    -0.861136E+00     0.861136E+00           -0.209034E-06    -0.300000E+02    -0.591672E-06
          1    -0.339981E+00    -0.861136E+00           -0.186423E-07    -0.300000E+02    -0.846520E-07
          1    -0.339981E+00    -0.339981E+00            0.194094E-06    -0.300000E+02    -0.217484E-07
          1    -0.339981E+00     0.339981E+00           -0.477117E-07    -0.300000E+02    -0.805520E-07
          1    -0.339981E+00     0.861136E+00           -0.631110E-06    -0.300000E+02    -0.233595E-06
          1     0.339981E+00    -0.861136E+00           -0.186423E-07    -0.300000E+02     0.846521E-07
          1     0.339981E+00    -0.339981E+00            0.194094E-06    -0.300000E+02     0.217484E-07
          1     0.339981E+00     0.339981E+00           -0.477117E-07    -0.300000E+02     0.805520E-07
          1     0.339981E+00     0.861136E+00           -0.631110E-06    -0.300000E+02     0.233595E-06
          1     0.861136E+00    -0.861136E+00           -0.653980E-07    -0.300000E+02     0.214415E-06
          1     0.861136E+00    -0.339981E+00            0.289206E-06    -0.300000E+02     0.550864E-07
          1     0.861136E+00     0.339981E+00            0.232497E-06    -0.300000E+02     0.204030E-06
          1     0.861136E+00     0.861136E+00           -0.209034E-06    -0.300000E+02     0.591672E-06
