
 Cables to test STAP90 for element 9Q                                            

 C O N T R O L   I N F O R M A T I O N

      NUMBER OF NODAL POINTS . . . . . . . . . . (NUMNP)  =     9
      NUMBER OF ELEMENT GROUPS . . . . . . . . . (NUMEG)  =     1
      NUMBER OF LOAD CASES . . . . . . . . . . . (NLCASE) =     1
      SOLUTION MODE  . . . . . . . . . . . . . . (MODEX)  =     1
         EQ.0, DATA CHECK
         EQ.1, EXECUTION


 N O D A L   P O I N T   D A T A

  NODE          BOUNDARY                         NODAL POINT
 NUMBER     CONDITION  CODES                     COORDINATES
               X    Y    Z               X            Y            Z
    1          1    1    1             -1.000       -1.000        0.000
    2          0    1    1              0.000       -1.000        0.000
    3          0    1    1              1.000       -1.000        0.000
    4          0    0    1              1.000        0.000        0.000
    5          0    0    1              1.000        1.000        0.000
    6          0    0    1              0.000        1.000        0.000
    7          0    0    1             -1.000        1.000        0.000
    8          0    0    1             -1.000        0.000        0.000
    9          0    0    1              0.000        0.000        0.000


 EQUATION NUMBERS

   NODE         DEGREES OF FREEDOM
  NUMBER
     N             X    Y    Z
     1             0    0    0
     2             1    0    0
     3             2    0    0
     4             3    4    0
     5             5    6    0
     6             7    8    0
     7             9   10    0
     8            11   12    0
     9            13   14    0


 L O A D   C A S E   D A T A

     LOAD CASE NUMBER . . . . . . . =     1
     NUMBER OF CONCENTRATED LOADS . =     3

    NODE       DIRECTION      LOAD
   NUMBER                   MAGNITUDE
      5            2       -0.10000E+02
      6            2       -0.20000E+02
      7            2       -0.10000E+02


 E L E M E N T   G R O U P   D A T A


 E L E M E N T   D E F I N I T I O N

 ELEMENT TYPE  . . . . . . . . . . . . .( NPAR(1) ) . . =    3
     EQ.3, 9Q ELEMENTS

 NUMBER OF ELEMENTS. . . . . . . . . . .( NPAR(2) ) . . =    1

 M A T E R I A L   D E F I N I T I O N

 NUMBER OF DIFFERENT SETS OF MATERIAL
 AND CROSS-SECTIONAL  CONSTANTS  . . . .( NPAR(3) ) . . =    1

  SET       YOUNG'S        POISSON
 NUMBER     MODULUS         RATIO
               E              A
    1     0.30000E+08    0.300000E+00


 E L E M E N T   I N F O R M A T I O N

 ELEMENT     NODE     NODE       MATERIAL
 NUMBER-N      I        J       SET NUMBER
    1          1        2        3        4        5        6        7        8        9           1


 TOTAL SYSTEM DATA

     NUMBER OF EQUATIONS . . . . . . . . . . . . . .(NEQ) =    14
     NUMBER OF MATRIX ELEMENTS . . . . . . . . . . .(NWK) =   105
     MAXIMUM HALF BANDWIDTH  . . . . . . . . . . . .(MK ) =    14
     MEAN HALF BANDWIDTH . . . . . . . . . . . . . .(MM ) =     7


 LOAD CASE   1


 D I S P L A C E M E N T S

  NODE           X-DISPLACEMENT    Y-DISPLACEMENT    Z-DISPLACEMENT
   1              0.000000E+00      0.000000E+00      0.000000E+00
   2              0.243452E-06      0.000000E+00      0.000000E+00
   3              0.486904E-06      0.000000E+00      0.000000E+00
   4              0.376328E-06     -0.711000E-06      0.000000E+00
   5              0.668496E-06     -0.175526E-05      0.000000E+00
   6              0.243452E-06     -0.112237E-05      0.000000E+00
   7             -0.181593E-06     -0.175526E-05      0.000000E+00
   8              0.110576E-06     -0.711000E-06      0.000000E+00
   9              0.243452E-06     -0.624071E-06      0.000000E+00


 S T R E S S  C A L C U L A T I O N S  F O R  E L E M E N T  G R O U P   1

  ELEMENT     X-CORRD         Y-CORRD                 STRESS_XX        STRESS_YY        STRESS_XY
     1    -0.774597E+00    -0.774597E+00           -0.236443E+00    -0.191250E+02     0.161067E+01
     1    -0.774597E+00     0.000000E+00           -0.304746E+01    -0.234458E+02     0.742378E+00
     1    -0.774597E+00     0.774597E+00            0.210791E+01    -0.253766E+02     0.479722E+01
     1     0.000000E+00    -0.774597E+00           -0.468571E+00    -0.198988E+02     0.610841E-15
     1     0.000000E+00     0.000000E+00           -0.116967E+01    -0.171865E+02    -0.183252E-14
     1     0.000000E+00     0.774597E+00            0.609561E+01    -0.120843E+02    -0.427589E-14
     1     0.774597E+00    -0.774597E+00           -0.236443E+00    -0.191250E+02    -0.161067E+01
     1     0.774597E+00     0.000000E+00           -0.304746E+01    -0.234458E+02    -0.742378E+00
     1     0.774597E+00     0.774597E+00            0.210791E+01    -0.253766E+02    -0.479722E+01


 S O L U T I O N   T I M E   L O G   I N   S E C

     TIME FOR INPUT PHASE  . . . . . . . . . . . . . . =        0.01562
     TIME FOR CALCULATION OF STIFFNESS MATRIX  . . . . =        0.00000
     TIME FOR FACTORIZATION OF STIFFNESS MATRIX  . . . =        0.00000
     TIME FOR LOAD CASE SOLUTIONS  . . . . . . . . . . =        0.00000

      T O T A L   S O L U T I O N   T I M E  . . . . . =        0.01562
