
 Cables to test STAP90 for 4Q element                                            

 C O N T R O L   I N F O R M A T I O N

      NUMBER OF NODAL POINTS . . . . . . . . . . (NUMNP)  =    25
      NUMBER OF ELEMENT GROUPS . . . . . . . . . (NUMEG)  =     1
      NUMBER OF LOAD CASES . . . . . . . . . . . (NLCASE) =     1
      SOLUTION MODE  . . . . . . . . . . . . . . (MODEX)  =     1
         EQ.0, DATA CHECK
         EQ.1, EXECUTION


 N O D A L   P O I N T   D A T A

  NODE          BOUNDARY                         NODAL POINT
 NUMBER     CONDITION  CODES                     COORDINATES
               X    Y    Z               X            Y            Z
    1          1    1    1              0.000        0.000        0.000
    2          0    0    1              0.500        0.125        0.000
    3          0    0    1              1.000        0.250        0.000
    4          0    0    1              1.500        0.375        0.000
    5          0    0    1              2.000        0.500        0.000
    6          1    1    1              0.000        0.250        0.000
    7          0    0    1              0.500        0.344        0.000
    8          0    0    1              1.000        0.438        0.000
    9          0    0    1              1.500        0.531        0.000
   10          0    0    1              2.000        0.625        0.000
   11          1    1    1              0.000        0.500        0.000
   12          0    0    1              0.500        0.562        0.000
   13          0    0    1              1.000        0.625        0.000
   14          0    0    1              1.500        0.688        0.000
   15          0    0    1              2.000        0.750        0.000
   16          1    1    1              0.000        0.750        0.000
   17          0    0    1              0.500        0.781        0.000
   18          0    0    1              1.000        0.812        0.000
   19          0    0    1              1.500        0.844        0.000
   20          0    0    1              2.000        0.875        0.000
   21          1    1    1              0.000        1.000        0.000
   22          0    0    1              0.500        1.000        0.000
   23          0    0    1              1.000        1.000        0.000
   24          0    0    1              1.500        1.000        0.000
   25          0    0    1              2.000        1.000        0.000


 EQUATION NUMBERS

   NODE         DEGREES OF FREEDOM
  NUMBER
     N             X    Y    Z
     1             0    0    0
     2             1    2    0
     3             3    4    0
     4             5    6    0
     5             7    8    0
     6             0    0    0
     7             9   10    0
     8            11   12    0
     9            13   14    0
    10            15   16    0
    11             0    0    0
    12            17   18    0
    13            19   20    0
    14            21   22    0
    15            23   24    0
    16             0    0    0
    17            25   26    0
    18            27   28    0
    19            29   30    0
    20            31   32    0
    21             0    0    0
    22            33   34    0
    23            35   36    0
    24            37   38    0
    25            39   40    0


 L O A D   C A S E   D A T A

     LOAD CASE NUMBER . . . . . . . =     1
     NUMBER OF CONCENTRATED LOADS . =     5

    NODE       DIRECTION      LOAD
   NUMBER                   MAGNITUDE
     21            2       -0.50000E+01
     22            2       -0.10000E+02
     23            2       -0.10000E+02
     24            2       -0.10000E+02
     25            2       -0.50000E+01


 E L E M E N T   G R O U P   D A T A


 E L E M E N T   D E F I N I T I O N

 ELEMENT TYPE  . . . . . . . . . . . . .( NPAR(1) ) . . =    2
     EQ.2, 4Q ELEMENTS
 NUMBER OF ELEMENTS. . . . . . . . . . .( NPAR(2) ) . . =   16

 M A T E R I A L   D E F I N I T I O N

 NUMBER OF DIFFERENT SETS OF MATERIAL
 AND CROSS-SECTIONAL  CONSTANTS  . . . .( NPAR(3) ) . . =    1

  SET       YOUNG'S        POISSON
 NUMBER     MODULUS         RATIO
               E              A
    1     0.30000E+08    0.300000E+00


 E L E M E N T   I N F O R M A T I O N

 ELEMENT     NODE     NODE       MATERIAL
 NUMBER-N     I1       I2       I3       I4      SET NUMBER
    1          1        2        7        6           1
    2          2        3        8        7           1
    3          3        4        9        8           1
    4          4        5       10        9           1
    5          6        7       12       11           1
    6          7        8       13       12           1
    7          8        9       14       13           1
    8          9       10       15       14           1
    9         11       12       17       16           1
   10         12       13       18       17           1
   11         13       14       19       18           1
   12         14       15       20       19           1
   13         16       17       22       21           1
   14         17       18       23       22           1
   15         18       19       24       23           1
   16         19       20       25       24           1


 TOTAL SYSTEM DATA

     NUMBER OF EQUATIONS . . . . . . . . . . . . . .(NEQ) =    40
     NUMBER OF MATRIX ELEMENTS . . . . . . . . . . .(NWK) =   376
     MAXIMUM HALF BANDWIDTH  . . . . . . . . . . . .(MK ) =    12
     MEAN HALF BANDWIDTH . . . . . . . . . . . . . .(MM ) =     9


 LOAD CASE   1


 D I S P L A C E M E N T S

  NODE           X-DISPLACEMENT    Y-DISPLACEMENT    Z-DISPLACEMENT
   1              0.000000E+00      0.000000E+00      0.000000E+00
   2             -0.248627E-05     -0.327218E-05      0.000000E+00
   3             -0.354310E-05     -0.899855E-05      0.000000E+00
   4             -0.296328E-05     -0.166598E-04      0.000000E+00
   5             -0.127387E-05     -0.248496E-04      0.000000E+00
   6              0.000000E+00      0.000000E+00      0.000000E+00
   7             -0.118611E-05     -0.303347E-05      0.000000E+00
   8             -0.137857E-05     -0.893830E-05      0.000000E+00
   9             -0.597300E-06     -0.166461E-04      0.000000E+00
  10              0.749292E-06     -0.248557E-04      0.000000E+00
  11              0.000000E+00      0.000000E+00      0.000000E+00
  12              0.870164E-07     -0.301150E-05      0.000000E+00
  13              0.759923E-06     -0.900416E-05      0.000000E+00
  14              0.171461E-05     -0.166945E-04      0.000000E+00
  15              0.275368E-05     -0.248897E-04      0.000000E+00
  16              0.000000E+00      0.000000E+00      0.000000E+00
  17              0.149355E-05     -0.320082E-05      0.000000E+00
  18              0.300371E-05     -0.917799E-05      0.000000E+00
  19              0.404346E-05     -0.167881E-04      0.000000E+00
  20              0.476642E-05     -0.249553E-04      0.000000E+00
  21              0.000000E+00      0.000000E+00      0.000000E+00
  22              0.339504E-05     -0.367610E-05      0.000000E+00
  23              0.542185E-05     -0.940546E-05      0.000000E+00
  24              0.646990E-05     -0.169241E-04      0.000000E+00
  25              0.680037E-05     -0.250377E-04      0.000000E+00


 S T R E S S  C A L C U L A T I O N S  F O R  E L E M E N T  G R O U P   1

  ELEMENT     X-CORRD         Y-CORRD                 STRESS_XX        STRESS_YY        STRESS_XY
     1     0.105662E+00     0.778513E-01           -0.152576E+03    -0.395552E+02    -0.618888E+02
     1     0.394338E+00     0.146207E+00           -0.173072E+03    -0.268589E+02    -0.241279E+02
     1     0.105662E+00     0.218376E+00           -0.101740E+03    -0.243043E+02    -0.586221E+02
     1     0.394338E+00     0.276315E+00           -0.118166E+03    -0.103870E+02    -0.205996E+02
     2     0.605662E+00     0.196247E+00           -0.102830E+03    -0.242561E+01    -0.549562E+02
     2     0.894338E+00     0.264603E+00           -0.132351E+03    -0.245649E+02    -0.165844E+02
     2     0.605662E+00     0.318730E+00           -0.616116E+02     0.994002E+01    -0.569394E+02
     2     0.894338E+00     0.376669E+00           -0.873012E+02    -0.110499E+02    -0.187521E+02
     3     0.110566E+01     0.314643E+00           -0.514528E+02    -0.707790E+01    -0.370058E+02
     3     0.139434E+01     0.382999E+00           -0.689089E+02    -0.163459E+02    -0.128014E+02
     3     0.110566E+01     0.419084E+00           -0.292700E+02    -0.423046E+00    -0.375108E+02
     3     0.139434E+01     0.477023E+00           -0.442685E+02    -0.895375E+01    -0.133623E+02
     4     0.160566E+01     0.433040E+00           -0.124044E+02    -0.182362E+01    -0.124219E+02
     4     0.189434E+01     0.501396E+00           -0.178373E+02    -0.579171E+01    -0.531806E+01
     4     0.160566E+01     0.519438E+00           -0.722224E+01    -0.268980E+00    -0.126587E+02
     4     0.189434E+01     0.577377E+00           -0.119447E+02    -0.402394E+01    -0.558722E+01
     5     0.105662E+00     0.321247E+00           -0.666284E+02    -0.194162E+02    -0.571801E+02
     5     0.394338E+00     0.371561E+00           -0.853065E+02    -0.232850E+02    -0.186402E+02
     5     0.105662E+00     0.461772E+00           -0.168494E+02    -0.448251E+01    -0.568794E+02
     5     0.394338E+00     0.501669E+00           -0.315421E+02    -0.715572E+01    -0.183154E+02
     6     0.605662E+00     0.408393E+00           -0.399082E+02    -0.114903E+02    -0.575355E+02
     6     0.894338E+00     0.458707E+00           -0.609328E+02    -0.255910E+02    -0.199525E+02
     6     0.605662E+00     0.530876E+00            0.119815E+01     0.841638E+00    -0.586991E+02
     6     0.894338E+00     0.570773E+00           -0.160056E+02    -0.121128E+02    -0.212243E+02
     7     0.110566E+01     0.495540E+00           -0.185604E+02    -0.158779E+02    -0.383552E+02
     7     0.139434E+01     0.545853E+00           -0.295102E+02    -0.184429E+02    -0.159385E+02
     7     0.110566E+01     0.599980E+00            0.234534E+01    -0.960619E+01    -0.382651E+02
     7     0.139434E+01     0.639877E+00           -0.628829E+01    -0.114764E+02    -0.158383E+02
     8     0.160566E+01     0.582686E+00           -0.476805E+01    -0.105157E+02    -0.155231E+02
     8     0.189434E+01     0.632999E+00           -0.863037E+01    -0.110271E+02    -0.738202E+01
     8     0.160566E+01     0.669084E+00            0.138689E+01    -0.866921E+01    -0.154576E+02
     8     0.189434E+01     0.708981E+00           -0.163161E+01    -0.892748E+01    -0.730751E+01
     9     0.105662E+00     0.564643E+00            0.192089E+02     0.831227E+00    -0.561165E+02
     9     0.394338E+00     0.596915E+00            0.640601E+00    -0.196857E+02    -0.127668E+02
     9     0.105662E+00     0.705168E+00            0.742043E+02     0.173298E+02    -0.587075E+02
     9     0.394338E+00     0.727023E+00            0.600390E+02    -0.186615E+01    -0.155652E+02
    10     0.605662E+00     0.620540E+00            0.198513E+02    -0.203547E+02    -0.509620E+02
    10     0.894338E+00     0.652811E+00            0.776593E+01    -0.250429E+02    -0.141762E+02
    10     0.605662E+00     0.743022E+00            0.606021E+02    -0.812947E+01    -0.511206E+02
    10     0.894338E+00     0.764877E+00            0.523047E+02    -0.116813E+02    -0.143496E+02
    11     0.110566E+01     0.676436E+00            0.947540E+01    -0.231738E+02    -0.316925E+02
    11     0.139434E+01     0.708707E+00            0.512171E+01    -0.188295E+02    -0.124729E+02
    11     0.110566E+01     0.780876E+00            0.275871E+02    -0.177403E+02    -0.309847E+02
    11     0.139434E+01     0.802731E+00            0.252400E+02    -0.127940E+02    -0.116866E+02
    12     0.160566E+01     0.732332E+00            0.260013E+01    -0.168002E+02    -0.138122E+02
    12     0.189434E+01     0.764603E+00            0.492034E+00    -0.161633E+02    -0.595657E+01
    12     0.160566E+01     0.818730E+00            0.854875E+01    -0.150156E+02    -0.136837E+02
    12     0.189434E+01     0.840585E+00            0.725619E+01    -0.141341E+02    -0.581045E+01
    13     0.105662E+00     0.808040E+00            0.118206E+03     0.230825E+02    -0.568989E+02
    13     0.394338E+00     0.822269E+00            0.977059E+02    -0.205879E+02     0.154788E+01
    13     0.105662E+00     0.948564E+00            0.192555E+03     0.453869E+02    -0.634030E+02
    13     0.394338E+00     0.952377E+00            0.178006E+03     0.350225E+01    -0.547695E+01
    14     0.605662E+00     0.832686E+00            0.716525E+02    -0.383081E+02    -0.262336E+02
    14     0.894338E+00     0.846915E+00            0.731810E+02    -0.212957E+02     0.134935E+01
    14     0.605662E+00     0.955168E+00            0.102595E+03    -0.290255E+02    -0.237619E+02
    14     0.894338E+00     0.958981E+00            0.106999E+03    -0.111503E+02     0.405076E+01
    15     0.110566E+01     0.857332E+00            0.355529E+02    -0.238523E+02    -0.201641E+02
    15     0.139434E+01     0.871561E+00            0.350425E+02    -0.181035E+02    -0.283630E+01
    15     0.110566E+01     0.961772E+00            0.517822E+02    -0.189835E+02    -0.194248E+02
    15     0.139434E+01     0.965585E+00            0.530698E+02    -0.126953E+02    -0.201504E+01
    16     0.160566E+01     0.881978E+00            0.851062E+01    -0.224412E+02    -0.704372E+01
    16     0.189434E+01     0.896207E+00            0.901841E+01    -0.186531E+02    -0.220761E+01
    16     0.160566E+01     0.968376E+00            0.121993E+02    -0.213346E+02    -0.667566E+01
    16     0.189434E+01     0.972189E+00            0.132128E+02    -0.173948E+02    -0.178909E+01


 S O L U T I O N   T I M E   L O G   I N   S E C

     TIME FOR INPUT PHASE  . . . . . . . . . . . . . . =        0.00000
     TIME FOR CALCULATION OF STIFFNESS MATRIX  . . . . =        0.01562
     TIME FOR FACTORIZATION OF STIFFNESS MATRIX  . . . =        0.00000
     TIME FOR LOAD CASE SOLUTIONS  . . . . . . . . . . =        0.00000

      T O T A L   S O L U T I O N   T I M E  . . . . . =        0.01562
